% Batch facts
horizon(1).
horizon(2).
horizon(3).
horizon(4).
horizon(5).
horizon(6).
horizon(7).
horizon(8).
horizon(9).
horizon(10).
horizon(11).
horizon(12).
sample(0).
cap(wind,0,350000).
cap(solar,0,250000).
pred(wind,0,1,76627).
pred(solar,0,1,1298).
pred(load,0,1,606471).
pred(price,0,1,16868).
weather(wind_speed,0,1,102).
weather(ghi,0,1,0).
night(0,1).
pred(wind,0,2,81632).
pred(solar,0,2,1008).
pred(load,0,2,581583).
pred(price,0,2,15937).
weather(wind_speed,0,2,20).
weather(ghi,0,2,0).
night(0,2).
pred(wind,0,3,82948).
pred(solar,0,3,2843).
pred(load,0,3,586520).
pred(price,0,3,15240).
weather(wind_speed,0,3,153).
weather(ghi,0,3,0).
night(0,3).
pred(wind,0,4,87344).
pred(solar,0,4,6718).
pred(load,0,4,626731).
pred(price,0,4,15082).
weather(wind_speed,0,4,152).
weather(ghi,0,4,0).
night(0,4).
pred(wind,0,5,84660).
pred(solar,0,5,12762).
pred(load,0,5,674681).
pred(price,0,5,15226).
weather(wind_speed,0,5,64).
weather(ghi,0,5,0).
pred(wind,0,6,78712).
pred(solar,0,6,21687).
pred(load,0,6,702923).
pred(price,0,6,15534).
weather(wind_speed,0,6,134).
weather(ghi,0,6,0).
pred(wind,0,7,76001).
pred(solar,0,7,29806).
pred(load,0,7,720266).
pred(price,0,7,15696).
weather(wind_speed,0,7,98).
weather(ghi,0,7,0).
pred(wind,0,8,76219).
pred(solar,0,8,34220).
pred(load,0,8,733487).
pred(price,0,8,15690).
weather(wind_speed,0,8,142).
weather(ghi,0,8,5500).
pred(wind,0,9,78014).
pred(solar,0,9,35971).
pred(load,0,9,763128).
pred(price,0,9,15907).
weather(wind_speed,0,9,51).
weather(ghi,0,9,17600).
pred(wind,0,10,78781).
pred(solar,0,10,35996).
pred(load,0,10,795106).
pred(price,0,10,16255).
weather(wind_speed,0,10,32).
weather(ghi,0,10,26600).
pred(wind,0,11,78229).
pred(solar,0,11,34976).
pred(load,0,11,817281).
pred(price,0,11,16386).
weather(wind_speed,0,11,120).
weather(ghi,0,11,22300).
pred(wind,0,12,70908).
pred(solar,0,12,32998).
pred(load,0,12,815034).
pred(price,0,12,16229).
weather(wind_speed,0,12,336).
weather(ghi,0,12,26700).
sample(1).
cap(wind,1,350000).
cap(solar,1,250000).
pred(wind,1,1,58183).
pred(solar,1,1,1237).
pred(load,1,1,599879).
pred(price,1,1,15340).
weather(wind_speed,1,1,20).
weather(ghi,1,1,0).
night(1,1).
pred(wind,1,2,65708).
pred(solar,1,2,2247).
pred(load,1,2,583299).
pred(price,1,2,14522).
weather(wind_speed,1,2,153).
weather(ghi,1,2,0).
night(1,2).
pred(wind,1,3,70855).
pred(solar,1,3,4919).
pred(load,1,3,590598).
pred(price,1,3,14044).
weather(wind_speed,1,3,152).
weather(ghi,1,3,0).
night(1,3).
pred(wind,1,4,79523).
pred(solar,1,4,9502).
pred(load,1,4,629637).
pred(price,1,4,14023).
weather(wind_speed,1,4,64).
weather(ghi,1,4,0).
pred(wind,1,5,83604).
pred(solar,1,5,15498).
pred(load,1,5,676016).
pred(price,1,5,14181).
weather(wind_speed,1,5,134).
weather(ghi,1,5,0).
pred(wind,1,6,82102).
pred(solar,1,6,22941).
pred(load,1,6,701481).
pred(price,1,6,14554).
weather(wind_speed,1,6,98).
weather(ghi,1,6,0).
pred(wind,1,7,78699).
pred(solar,1,7,30039).
pred(load,1,7,716012).
pred(price,1,7,14758).
weather(wind_speed,1,7,142).
weather(ghi,1,7,5500).
pred(wind,1,8,78661).
pred(solar,1,8,33773).
pred(load,1,8,726756).
pred(price,1,8,14804).
weather(wind_speed,1,8,51).
weather(ghi,1,8,17600).
pred(wind,1,9,82839).
pred(solar,1,9,34001).
pred(load,1,9,752168).
pred(price,1,9,15025).
weather(wind_speed,1,9,32).
weather(ghi,1,9,26600).
pred(wind,1,10,87016).
pred(solar,1,10,32483).
pred(load,1,10,770566).
pred(price,1,10,15203).
weather(wind_speed,1,10,120).
weather(ghi,1,10,22300).
pred(wind,1,11,88561).
pred(solar,1,11,30871).
pred(load,1,11,784241).
pred(price,1,11,15201).
weather(wind_speed,1,11,336).
weather(ghi,1,11,26700).
pred(wind,1,12,82992).
pred(solar,1,12,29095).
pred(load,1,12,786393).
pred(price,1,12,14946).
weather(wind_speed,1,12,465).
weather(ghi,1,12,17900).
sample(2).
cap(wind,2,350000).
cap(solar,2,250000).
pred(wind,2,1,53150).
pred(solar,2,1,2689).
pred(load,2,1,623695).
pred(price,2,1,14466).
weather(wind_speed,2,1,153).
weather(ghi,2,1,0).
night(2,1).
pred(wind,2,2,54128).
pred(solar,2,2,4409).
pred(load,2,2,604190).
pred(price,2,2,13483).
weather(wind_speed,2,2,152).
weather(ghi,2,2,0).
night(2,2).
pred(wind,2,3,54228).
pred(solar,2,3,5400).
pred(load,2,3,600756).
pred(price,2,3,13024).
weather(wind_speed,2,3,64).
weather(ghi,2,3,0).
pred(wind,2,4,62899).
pred(solar,2,4,8187).
pred(load,2,4,634693).
pred(price,2,4,13070).
weather(wind_speed,2,4,134).
weather(ghi,2,4,0).
pred(wind,2,5,70096).
pred(solar,2,5,13422).
pred(load,2,5,674176).
pred(price,2,5,13304).
weather(wind_speed,2,5,98).
weather(ghi,2,5,0).
pred(wind,2,6,65374).
pred(solar,2,6,20183).
pred(load,2,6,699070).
pred(price,2,6,13614).
weather(wind_speed,2,6,142).
weather(ghi,2,6,5500).
pred(wind,2,7,54854).
pred(solar,2,7,26042).
pred(load,2,7,715825).
pred(price,2,7,13938).
weather(wind_speed,2,7,51).
weather(ghi,2,7,17600).
pred(wind,2,8,52403).
pred(solar,2,8,28034).
pred(load,2,8,730675).
pred(price,2,8,14159).
weather(wind_speed,2,8,32).
weather(ghi,2,8,26600).
pred(wind,2,9,58744).
pred(solar,2,9,27201).
pred(load,2,9,746656).
pred(price,2,9,14491).
weather(wind_speed,2,9,120).
weather(ghi,2,9,22300).
pred(wind,2,10,64163).
pred(solar,2,10,24338).
pred(load,2,10,747369).
pred(price,2,10,14499).
weather(wind_speed,2,10,336).
weather(ghi,2,10,26700).
pred(wind,2,11,63486).
pred(solar,2,11,20717).
pred(load,2,11,753253).
pred(price,2,11,14286).
weather(wind_speed,2,11,465).
weather(ghi,2,11,17900).
pred(wind,2,12,62023).
pred(solar,2,12,19797).
pred(load,2,12,767197).
pred(price,2,12,13908).
weather(wind_speed,2,12,349).
weather(ghi,2,12,19500).
sample(3).
cap(wind,3,350000).
cap(solar,3,250000).
pred(wind,3,1,47085).
pred(solar,3,1,5344).
pred(load,3,1,619570).
pred(price,3,1,14363).
weather(wind_speed,3,1,152).
weather(ghi,3,1,0).
night(3,1).
pred(wind,3,2,56588).
pred(solar,3,2,7855).
pred(load,3,2,618390).
pred(price,3,2,13837).
weather(wind_speed,3,2,64).
weather(ghi,3,2,0).
pred(wind,3,3,67180).
pred(solar,3,3,11199).
pred(load,3,3,643037).
pred(price,3,3,13713).
weather(wind_speed,3,3,134).
weather(ghi,3,3,0).
pred(wind,3,4,79037).
pred(solar,3,4,16704).
pred(load,3,4,691085).
pred(price,3,4,13888).
weather(wind_speed,3,4,98).
weather(ghi,3,4,0).
pred(wind,3,5,81664).
pred(solar,3,5,24401).
pred(load,3,5,734128).
pred(price,3,5,14029).
weather(wind_speed,3,5,142).
weather(ghi,3,5,5500).
pred(wind,3,6,76725).
pred(solar,3,6,34074).
pred(load,3,6,756973).
pred(price,3,6,14322).
weather(wind_speed,3,6,51).
weather(ghi,3,6,17600).
pred(wind,3,7,72915).
pred(solar,3,7,42493).
pred(load,3,7,769900).
pred(price,3,7,14571).
weather(wind_speed,3,7,32).
weather(ghi,3,7,26600).
pred(wind,3,8,72474).
pred(solar,3,8,46553).
pred(load,3,8,773526).
pred(price,3,8,14493).
weather(wind_speed,3,8,120).
weather(ghi,3,8,22300).
pred(wind,3,9,74030).
pred(solar,3,9,45920).
pred(load,3,9,778263).
pred(price,3,9,14587).
weather(wind_speed,3,9,336).
weather(ghi,3,9,26700).
pred(wind,3,10,76881).
pred(solar,3,10,41242).
pred(load,3,10,780662).
pred(price,3,10,14658).
weather(wind_speed,3,10,465).
weather(ghi,3,10,17900).
pred(wind,3,11,77665).
pred(solar,3,11,34961).
pred(load,3,11,785787).
pred(price,3,11,14743).
weather(wind_speed,3,11,349).
weather(ghi,3,11,19500).
pred(wind,3,12,70882).
pred(solar,3,12,29174).
pred(load,3,12,790996).
pred(price,3,12,14740).
weather(wind_speed,3,12,260).
weather(ghi,3,12,9700).
sample(4).
cap(wind,4,350000).
cap(solar,4,250000).
pred(wind,4,1,57838).
pred(solar,4,1,3066).
pred(load,4,1,627822).
pred(price,4,1,14742).
weather(wind_speed,4,1,64).
weather(ghi,4,1,0).
pred(wind,4,2,63136).
pred(solar,4,2,3060).
pred(load,4,2,631506).
pred(price,4,2,14327).
weather(wind_speed,4,2,134).
weather(ghi,4,2,0).
pred(wind,4,3,65153).
pred(solar,4,3,3890).
pred(load,4,3,660011).
pred(price,4,3,14163).
weather(wind_speed,4,3,98).
weather(ghi,4,3,0).
pred(wind,4,4,65111).
pred(solar,4,4,5983).
pred(load,4,4,711245).
pred(price,4,4,14300).
weather(wind_speed,4,4,142).
weather(ghi,4,4,5500).
pred(wind,4,5,59480).
pred(solar,4,5,11634).
pred(load,4,5,760091).
pred(price,4,5,14403).
weather(wind_speed,4,5,51).
weather(ghi,4,5,17600).
pred(wind,4,6,60633).
pred(solar,4,6,20868).
pred(load,4,6,779099).
pred(price,4,6,14319).
weather(wind_speed,4,6,32).
weather(ghi,4,6,26600).
pred(wind,4,7,68476).
pred(solar,4,7,30107).
pred(load,4,7,771966).
pred(price,4,7,14058).
weather(wind_speed,4,7,120).
weather(ghi,4,7,22300).
pred(wind,4,8,78766).
pred(solar,4,8,37264).
pred(load,4,8,750424).
pred(price,4,8,13692).
weather(wind_speed,4,8,336).
weather(ghi,4,8,26700).
pred(wind,4,9,86787).
pred(solar,4,9,40509).
pred(load,4,9,739405).
pred(price,4,9,13695).
weather(wind_speed,4,9,465).
weather(ghi,4,9,17900).
pred(wind,4,10,85166).
pred(solar,4,10,39825).
pred(load,4,10,745202).
pred(price,4,10,13840).
weather(wind_speed,4,10,349).
weather(ghi,4,10,19500).
pred(wind,4,11,85207).
pred(solar,4,11,36156).
pred(load,4,11,759288).
pred(price,4,11,13981).
weather(wind_speed,4,11,260).
weather(ghi,4,11,9700).
pred(wind,4,12,85770).
pred(solar,4,12,32127).
pred(load,4,12,773571).
pred(price,4,12,14094).
weather(wind_speed,4,12,243).
weather(ghi,4,12,900).
sample(5).
cap(wind,5,350000).
cap(solar,5,250000).
pred(wind,5,1,17669).
pred(solar,5,1,0).
pred(load,5,1,655402).
pred(price,5,1,15935).
weather(wind_speed,5,1,134).
weather(ghi,5,1,0).
pred(wind,5,2,21626).
pred(solar,5,2,0).
pred(load,5,2,676301).
pred(price,5,2,15340).
weather(wind_speed,5,2,98).
weather(ghi,5,2,0).
pred(wind,5,3,25719).
pred(solar,5,3,3650).
pred(load,5,3,702795).
pred(price,5,3,14902).
weather(wind_speed,5,3,142).
weather(ghi,5,3,5500).
pred(wind,5,4,28171).
pred(solar,5,4,7932).
pred(load,5,4,729867).
pred(price,5,4,14889).
weather(wind_speed,5,4,51).
weather(ghi,5,4,17600).
pred(wind,5,5,32280).
pred(solar,5,5,13742).
pred(load,5,5,749564).
pred(price,5,5,15044).
weather(wind_speed,5,5,32).
weather(ghi,5,5,26600).
pred(wind,5,6,40414).
pred(solar,5,6,21722).
pred(load,5,6,757993).
pred(price,5,6,15026).
weather(wind_speed,5,6,120).
weather(ghi,5,6,22300).
pred(wind,5,7,50102).
pred(solar,5,7,28748).
pred(load,5,7,754066).
pred(price,5,7,14815).
weather(wind_speed,5,7,336).
weather(ghi,5,7,26700).
pred(wind,5,8,58310).
pred(solar,5,8,32968).
pred(load,5,8,735791).
pred(price,5,8,14426).
weather(wind_speed,5,8,465).
weather(ghi,5,8,17900).
pred(wind,5,9,66535).
pred(solar,5,9,33594).
pred(load,5,9,723985).
pred(price,5,9,14344).
weather(wind_speed,5,9,349).
weather(ghi,5,9,19500).
pred(wind,5,10,63703).
pred(solar,5,10,30368).
pred(load,5,10,731255).
pred(price,5,10,14514).
weather(wind_speed,5,10,260).
weather(ghi,5,10,9700).
pred(wind,5,11,65269).
pred(solar,5,11,25327).
pred(load,5,11,753690).
pred(price,5,11,14638).
weather(wind_speed,5,11,243).
weather(ghi,5,11,900).
pred(wind,5,12,72162).
pred(solar,5,12,21224).
pred(load,5,12,775096).
pred(price,5,12,14722).
weather(wind_speed,5,12,184).
weather(ghi,5,12,0).
sample(6).
cap(wind,6,350000).
cap(solar,6,250000).
pred(wind,6,1,16224).
pred(solar,6,1,0).
pred(load,6,1,656264).
pred(price,6,1,17468).
weather(wind_speed,6,1,98).
weather(ghi,6,1,0).
pred(wind,6,2,12221).
pred(solar,6,2,0).
pred(load,6,2,663388).
pred(price,6,2,16618).
weather(wind_speed,6,2,142).
weather(ghi,6,2,5500).
pred(wind,6,3,14736).
pred(solar,6,3,0).
pred(load,6,3,673729).
pred(price,6,3,15860).
weather(wind_speed,6,3,51).
weather(ghi,6,3,17600).
pred(wind,6,4,19757).
pred(solar,6,4,4380).
pred(load,6,4,689047).
pred(price,6,4,15595).
weather(wind_speed,6,4,32).
weather(ghi,6,4,26600).
pred(wind,6,5,21445).
pred(solar,6,5,9786).
pred(load,6,5,693861).
pred(price,6,5,15619).
weather(wind_speed,6,5,120).
weather(ghi,6,5,22300).
pred(wind,6,6,27710).
pred(solar,6,6,15339).
pred(load,6,6,689085).
pred(price,6,6,15537).
weather(wind_speed,6,6,336).
weather(ghi,6,6,26700).
pred(wind,6,7,34017).
pred(solar,6,7,19752).
pred(load,6,7,685677).
pred(price,6,7,15572).
weather(wind_speed,6,7,465).
weather(ghi,6,7,17900).
pred(wind,6,8,40315).
pred(solar,6,8,22950).
pred(load,6,8,682417).
pred(price,6,8,15525).
weather(wind_speed,6,8,349).
weather(ghi,6,8,19500).
pred(wind,6,9,48499).
pred(solar,6,9,23353).
pred(load,6,9,679999).
pred(price,6,9,15624).
weather(wind_speed,6,9,260).
weather(ghi,6,9,9700).
pred(wind,6,10,51664).
pred(solar,6,10,18931).
pred(load,6,10,679535).
pred(price,6,10,15639).
weather(wind_speed,6,10,243).
weather(ghi,6,10,900).
pred(wind,6,11,60913).
pred(solar,6,11,12978).
pred(load,6,11,704655).
pred(price,6,11,15435).
weather(wind_speed,6,11,184).
weather(ghi,6,11,0).
pred(wind,6,12,73709).
pred(solar,6,12,8849).
pred(load,6,12,733055).
pred(price,6,12,15288).
weather(wind_speed,6,12,279).
weather(ghi,6,12,0).
sample(7).
cap(wind,7,350000).
cap(solar,7,250000).
pred(wind,7,1,24429).
pred(solar,7,1,0).
pred(load,7,1,690882).
pred(price,7,1,19750).
weather(wind_speed,7,1,142).
weather(ghi,7,1,5500).
pred(wind,7,2,13682).
pred(solar,7,2,0).
pred(load,7,2,690583).
pred(price,7,2,18935).
weather(wind_speed,7,2,51).
weather(ghi,7,2,17600).
pred(wind,7,3,12725).
pred(solar,7,3,0).
pred(load,7,3,688677).
pred(price,7,3,18232).
weather(wind_speed,7,3,32).
weather(ghi,7,3,26600).
pred(wind,7,4,10952).
pred(solar,7,4,84).
pred(load,7,4,694531).
pred(price,7,4,17933).
weather(wind_speed,7,4,120).
weather(ghi,7,4,22300).
pred(wind,7,5,7488).
pred(solar,7,5,6374).
pred(load,7,5,692500).
pred(price,7,5,18050).
weather(wind_speed,7,5,336).
weather(ghi,7,5,26700).
pred(wind,7,6,12981).
pred(solar,7,6,12475).
pred(load,7,6,689174).
pred(price,7,6,17961).
weather(wind_speed,7,6,465).
weather(ghi,7,6,17900).
pred(wind,7,7,18787).
pred(solar,7,7,17094).
pred(load,7,7,691110).
pred(price,7,7,17914).
weather(wind_speed,7,7,349).
weather(ghi,7,7,19500).
pred(wind,7,8,24611).
pred(solar,7,8,20537).
pred(load,7,8,694266).
pred(price,7,8,17779).
weather(wind_speed,7,8,260).
weather(ghi,7,8,9700).
pred(wind,7,9,31174).
pred(solar,7,9,21706).
pred(load,7,9,695027).
pred(price,7,9,17761).
weather(wind_speed,7,9,243).
weather(ghi,7,9,900).
pred(wind,7,10,34649).
pred(solar,7,10,18194).
pred(load,7,10,691006).
pred(price,7,10,17663).
weather(wind_speed,7,10,184).
weather(ghi,7,10,0).
pred(wind,7,11,43447).
pred(solar,7,11,12691).
pred(load,7,11,707762).
pred(price,7,11,17407).
weather(wind_speed,7,11,279).
weather(ghi,7,11,0).
pred(wind,7,12,57085).
pred(solar,7,12,8580).
pred(load,7,12,734001).
pred(price,7,12,17353).
weather(wind_speed,7,12,352).
weather(ghi,7,12,0).
sample(8).
cap(wind,8,350000).
cap(solar,8,250000).
pred(wind,8,1,35511).
pred(solar,8,1,0).
pred(load,8,1,739095).
pred(price,8,1,20607).
weather(wind_speed,8,1,51).
weather(ghi,8,1,17600).
pred(wind,8,2,34565).
pred(solar,8,2,0).
pred(load,8,2,742116).
pred(price,8,2,19699).
weather(wind_speed,8,2,32).
weather(ghi,8,2,26600).
pred(wind,8,3,42078).
pred(solar,8,3,0).
pred(load,8,3,737967).
pred(price,8,3,18857).
weather(wind_speed,8,3,120).
weather(ghi,8,3,22300).
pred(wind,8,4,51573).
pred(solar,8,4,0).
pred(load,8,4,730959).
pred(price,8,4,18586).
weather(wind_speed,8,4,336).
weather(ghi,8,4,26700).
pred(wind,8,5,58082).
pred(solar,8,5,540).
pred(load,8,5,715178).
pred(price,8,5,18571).
weather(wind_speed,8,5,465).
weather(ghi,8,5,17900).
pred(wind,8,6,69279).
pred(solar,8,6,10347).
pred(load,8,6,695924).
pred(price,8,6,18462).
weather(wind_speed,8,6,349).
weather(ghi,8,6,19500).
pred(wind,8,7,82817).
pred(solar,8,7,16338).
pred(load,8,7,682515).
pred(price,8,7,18386).
weather(wind_speed,8,7,260).
weather(ghi,8,7,9700).
pred(wind,8,8,87130).
pred(solar,8,8,17950).
pred(load,8,8,690392).
pred(price,8,8,18373).
weather(wind_speed,8,8,243).
weather(ghi,8,8,900).
pred(wind,8,9,92338).
pred(solar,8,9,16183).
pred(load,8,9,708379).
pred(price,8,9,18448).
weather(wind_speed,8,9,184).
weather(ghi,8,9,0).
pred(wind,8,10,96207).
pred(solar,8,10,11240).
pred(load,8,10,709115).
pred(price,8,10,18394).
weather(wind_speed,8,10,279).
weather(ghi,8,10,0).
pred(wind,8,11,101009).
pred(solar,8,11,7420).
pred(load,8,11,717350).
pred(price,8,11,18249).
weather(wind_speed,8,11,352).
weather(ghi,8,11,0).
pred(wind,8,12,115479).
pred(solar,8,12,7696).
pred(load,8,12,729610).
pred(price,8,12,18220).
weather(wind_speed,8,12,293).
weather(ghi,8,12,0).
sample(9).
cap(wind,9,350000).
cap(solar,9,250000).
pred(wind,9,1,76283).
pred(solar,9,1,2726).
pred(load,9,1,770518).
pred(price,9,1,21244).
weather(wind_speed,9,1,32).
weather(ghi,9,1,26600).
pred(wind,9,2,82258).
pred(solar,9,2,5018).
pred(load,9,2,772338).
pred(price,9,2,20734).
weather(wind_speed,9,2,120).
weather(ghi,9,2,22300).
pred(wind,9,3,91193).
pred(solar,9,3,9273).
pred(load,9,3,771072).
pred(price,9,3,20111).
weather(wind_speed,9,3,336).
weather(ghi,9,3,26700).
pred(wind,9,4,96718).
pred(solar,9,4,14570).
pred(load,9,4,767026).
pred(price,9,4,19594).
weather(wind_speed,9,4,465).
weather(ghi,9,4,17900).
pred(wind,9,5,100863).
pred(solar,9,5,18480).
pred(load,9,5,762728).
pred(price,9,5,19298).
weather(wind_speed,9,5,349).
weather(ghi,9,5,19500).
pred(wind,9,6,107978).
pred(solar,9,6,22595).
pred(load,9,6,763408).
pred(price,9,6,19192).
weather(wind_speed,9,6,260).
weather(ghi,9,6,9700).
pred(wind,9,7,111457).
pred(solar,9,7,27447).
pred(load,9,7,772885).
pred(price,9,7,19186).
weather(wind_speed,9,7,243).
weather(ghi,9,7,900).
pred(wind,9,8,108953).
pred(solar,9,8,31683).
pred(load,9,8,782454).
pred(price,9,8,19073).
weather(wind_speed,9,8,184).
weather(ghi,9,8,0).
pred(wind,9,9,112059).
pred(solar,9,9,33366).
pred(load,9,9,778318).
pred(price,9,9,18851).
weather(wind_speed,9,9,279).
weather(ghi,9,9,0).
pred(wind,9,10,120849).
pred(solar,9,10,30187).
pred(load,9,10,764165).
pred(price,9,10,18610).
weather(wind_speed,9,10,352).
weather(ghi,9,10,0).
pred(wind,9,11,131571).
pred(solar,9,11,22580).
pred(load,9,11,748600).
pred(price,9,11,18466).
weather(wind_speed,9,11,293).
weather(ghi,9,11,0).
pred(wind,9,12,131786).
pred(solar,9,12,12681).
pred(load,9,12,733649).
pred(price,9,12,18415).
weather(wind_speed,9,12,215).
weather(ghi,9,12,0).
night(9,12).
sample(10).
cap(wind,10,350000).
cap(solar,10,250000).
pred(wind,10,1,59225).
pred(solar,10,1,7122).
pred(load,10,1,771998).
pred(price,10,1,20399).
weather(wind_speed,10,1,120).
weather(ghi,10,1,22300).
pred(wind,10,2,61743).
pred(solar,10,2,8474).
pred(load,10,2,776767).
pred(price,10,2,19893).
weather(wind_speed,10,2,336).
weather(ghi,10,2,26700).
pred(wind,10,3,69289).
pred(solar,10,3,8990).
pred(load,10,3,777055).
pred(price,10,3,19399).
weather(wind_speed,10,3,465).
weather(ghi,10,3,17900).
pred(wind,10,4,73633).
pred(solar,10,4,8368).
pred(load,10,4,772173).
pred(price,10,4,19080).
weather(wind_speed,10,4,349).
weather(ghi,10,4,19500).
pred(wind,10,5,77390).
pred(solar,10,5,7558).
pred(load,10,5,767707).
pred(price,10,5,18830).
weather(wind_speed,10,5,260).
weather(ghi,10,5,9700).
pred(wind,10,6,84956).
pred(solar,10,6,7483).
pred(load,10,6,768040).
pred(price,10,6,18727).
weather(wind_speed,10,6,243).
weather(ghi,10,6,900).
pred(wind,10,7,91880).
pred(solar,10,7,9063).
pred(load,10,7,771920).
pred(price,10,7,18537).
weather(wind_speed,10,7,184).
weather(ghi,10,7,0).
pred(wind,10,8,97177).
pred(solar,10,8,11237).
pred(load,10,8,775304).
pred(price,10,8,18280).
weather(wind_speed,10,8,279).
weather(ghi,10,8,0).
pred(wind,10,9,104325).
pred(solar,10,9,12764).
pred(load,10,9,774279).
pred(price,10,9,18068).
weather(wind_speed,10,9,352).
weather(ghi,10,9,0).
pred(wind,10,10,107844).
pred(solar,10,10,13042).
pred(load,10,10,767256).
pred(price,10,10,17853).
weather(wind_speed,10,10,293).
weather(ghi,10,10,0).
pred(wind,10,11,114042).
pred(solar,10,11,12509).
pred(load,10,11,751018).
pred(price,10,11,17720).
weather(wind_speed,10,11,215).
weather(ghi,10,11,0).
night(10,11).
pred(wind,10,12,118801).
pred(solar,10,12,11254).
pred(load,10,12,726642).
pred(price,10,12,17562).
weather(wind_speed,10,12,212).
weather(ghi,10,12,0).
night(10,12).
sample(11).
cap(wind,11,350000).
cap(solar,11,250000).
pred(wind,11,1,59164).
pred(solar,11,1,13794).
pred(load,11,1,765916).
pred(price,11,1,20085).
weather(wind_speed,11,1,336).
weather(ghi,11,1,26700).
pred(wind,11,2,67200).
pred(solar,11,2,12555).
pred(load,11,2,753743).
pred(price,11,2,19662).
weather(wind_speed,11,2,465).
weather(ghi,11,2,17900).
pred(wind,11,3,78002).
pred(solar,11,3,9309).
pred(load,11,3,739421).
pred(price,11,3,19254).
weather(wind_speed,11,3,349).
weather(ghi,11,3,19500).
pred(wind,11,4,86427).
pred(solar,11,4,5223).
pred(load,11,4,727895).
pred(price,11,4,18917).
weather(wind_speed,11,4,260).
weather(ghi,11,4,9700).
pred(wind,11,5,95243).
pred(solar,11,5,1367).
pred(load,11,5,723929).
pred(price,11,5,18541).
weather(wind_speed,11,5,243).
weather(ghi,11,5,900).
pred(wind,11,6,103871).
pred(solar,11,6,0).
pred(load,11,6,728421).
pred(price,11,6,18442).
weather(wind_speed,11,6,184).
weather(ghi,11,6,0).
pred(wind,11,7,110616).
pred(solar,11,7,0).
pred(load,11,7,738956).
pred(price,11,7,18293).
weather(wind_speed,11,7,279).
weather(ghi,11,7,0).
pred(wind,11,8,115950).
pred(solar,11,8,2277).
pred(load,11,8,746734).
pred(price,11,8,18086).
weather(wind_speed,11,8,352).
weather(ghi,11,8,0).
pred(wind,11,9,121864).
pred(solar,11,9,4995).
pred(load,11,9,749269).
pred(price,11,9,17906).
weather(wind_speed,11,9,293).
weather(ghi,11,9,0).
pred(wind,11,10,121877).
pred(solar,11,10,6924).
pred(load,11,10,745540).
pred(price,11,10,17593).
weather(wind_speed,11,10,215).
weather(ghi,11,10,0).
night(11,10).
pred(wind,11,11,121273).
pred(solar,11,11,8684).
pred(load,11,11,735672).
pred(price,11,11,17318).
weather(wind_speed,11,11,212).
weather(ghi,11,11,0).
night(11,11).
pred(wind,11,12,119779).
pred(solar,11,12,10577).
pred(load,11,12,720787).
pred(price,11,12,17010).
weather(wind_speed,11,12,260).
weather(ghi,11,12,0).
night(11,12).
sample(12).
cap(wind,12,350000).
cap(solar,12,250000).
pred(wind,12,1,60090).
pred(solar,12,1,11103).
pred(load,12,1,755158).
pred(price,12,1,20318).
weather(wind_speed,12,1,465).
weather(ghi,12,1,17900).
pred(wind,12,2,69298).
pred(solar,12,2,9405).
pred(load,12,2,741725).
pred(price,12,2,19975).
weather(wind_speed,12,2,349).
weather(ghi,12,2,19500).
pred(wind,12,3,80455).
pred(solar,12,3,6074).
pred(load,12,3,727601).
pred(price,12,3,19582).
weather(wind_speed,12,3,260).
weather(ghi,12,3,9700).
pred(wind,12,4,88607).
pred(solar,12,4,2256).
pred(load,12,4,714916).
pred(price,12,4,19202).
weather(wind_speed,12,4,243).
weather(ghi,12,4,900).
pred(wind,12,5,98319).
pred(solar,12,5,0).
pred(load,12,5,709034).
pred(price,12,5,18778).
weather(wind_speed,12,5,184).
weather(ghi,12,5,0).
pred(wind,12,6,107150).
pred(solar,12,6,0).
pred(load,12,6,708690).
pred(price,12,6,18627).
weather(wind_speed,12,6,279).
weather(ghi,12,6,0).
pred(wind,12,7,114583).
pred(solar,12,7,0).
pred(load,12,7,713469).
pred(price,12,7,18386).
weather(wind_speed,12,7,352).
weather(ghi,12,7,0).
pred(wind,12,8,120985).
pred(solar,12,8,0).
pred(load,12,8,717628).
pred(price,12,8,18050).
weather(wind_speed,12,8,293).
weather(ghi,12,8,0).
pred(wind,12,9,127229).
pred(solar,12,9,2839).
pred(load,12,9,718321).
pred(price,12,9,17745).
weather(wind_speed,12,9,215).
weather(ghi,12,9,0).
night(12,9).
pred(wind,12,10,129093).
pred(solar,12,10,5377).
pred(load,12,10,714117).
pred(price,12,10,17394).
weather(wind_speed,12,10,212).
weather(ghi,12,10,0).
night(12,10).
pred(wind,12,11,130630).
pred(solar,12,11,8001).
pred(load,12,11,705409).
pred(price,12,11,17113).
weather(wind_speed,12,11,260).
weather(ghi,12,11,0).
night(12,11).
pred(wind,12,12,130025).
pred(solar,12,12,10571).
pred(load,12,12,696282).
pred(price,12,12,16815).
weather(wind_speed,12,12,422).
weather(ghi,12,12,0).
night(12,12).
sample(13).
cap(wind,13,350000).
cap(solar,13,250000).
pred(wind,13,1,54647).
pred(solar,13,1,5190).
pred(load,13,1,744450).
pred(price,13,1,19219).
weather(wind_speed,13,1,349).
weather(ghi,13,1,19500).
pred(wind,13,2,58913).
pred(solar,13,2,3439).
pred(load,13,2,740442).
pred(price,13,2,18874).
weather(wind_speed,13,2,260).
weather(ghi,13,2,9700).
pred(wind,13,3,65263).
pred(solar,13,3,1750).
pred(load,13,3,736850).
pred(price,13,3,18471).
weather(wind_speed,13,3,243).
weather(ghi,13,3,900).
pred(wind,13,4,70764).
pred(solar,13,4,23).
pred(load,13,4,724274).
pred(price,13,4,18069).
weather(wind_speed,13,4,184).
weather(ghi,13,4,0).
pred(wind,13,5,77745).
pred(solar,13,5,0).
pred(load,13,5,710525).
pred(price,13,5,17677).
weather(wind_speed,13,5,279).
weather(ghi,13,5,0).
pred(wind,13,6,84465).
pred(solar,13,6,0).
pred(load,13,6,698317).
pred(price,13,6,17444).
weather(wind_speed,13,6,352).
weather(ghi,13,6,0).
pred(wind,13,7,90877).
pred(solar,13,7,819).
pred(load,13,7,692313).
pred(price,13,7,17057).
weather(wind_speed,13,7,293).
weather(ghi,13,7,0).
pred(wind,13,8,95695).
pred(solar,13,8,4354).
pred(load,13,8,697599).
pred(price,13,8,16613).
weather(wind_speed,13,8,215).
weather(ghi,13,8,0).
night(13,8).
pred(wind,13,9,101751).
pred(solar,13,9,8677).
pred(load,13,9,697303).
pred(price,13,9,16294).
weather(wind_speed,13,9,212).
weather(ghi,13,9,0).
night(13,9).
pred(wind,13,10,106976).
pred(solar,13,10,13114).
pred(load,13,10,686926).
pred(price,13,10,16118).
weather(wind_speed,13,10,260).
weather(ghi,13,10,0).
night(13,10).
pred(wind,13,11,113317).
pred(solar,13,11,16657).
pred(load,13,11,667981).
pred(price,13,11,15975).
weather(wind_speed,13,11,422).
weather(ghi,13,11,0).
night(13,11).
pred(wind,13,12,115936).
pred(solar,13,12,17397).
pred(load,13,12,660614).
pred(price,13,12,15769).
weather(wind_speed,13,12,350).
weather(ghi,13,12,0).
night(13,12).
sample(14).
cap(wind,14,350000).
cap(solar,14,250000).
pred(wind,14,1,59957).
pred(solar,14,1,1796).
pred(load,14,1,744252).
pred(price,14,1,18353).
weather(wind_speed,14,1,260).
weather(ghi,14,1,9700).
pred(wind,14,2,65257).
pred(solar,14,2,0).
pred(load,14,2,742781).
pred(price,14,2,18131).
weather(wind_speed,14,2,243).
weather(ghi,14,2,900).
pred(wind,14,3,75799).
pred(solar,14,3,0).
pred(load,14,3,729596).
pred(price,14,3,17861).
weather(wind_speed,14,3,184).
weather(ghi,14,3,0).
pred(wind,14,4,82328).
pred(solar,14,4,0).
pred(load,14,4,707087).
pred(price,14,4,17461).
weather(wind_speed,14,4,279).
weather(ghi,14,4,0).
pred(wind,14,5,88911).
pred(solar,14,5,0).
pred(load,14,5,686760).
pred(price,14,5,17074).
weather(wind_speed,14,5,352).
weather(ghi,14,5,0).
pred(wind,14,6,94221).
pred(solar,14,6,0).
pred(load,14,6,671752).
pred(price,14,6,16713).
weather(wind_speed,14,6,293).
weather(ghi,14,6,0).
pred(wind,14,7,97738).
pred(solar,14,7,0).
pred(load,14,7,657734).
pred(price,14,7,16399).
weather(wind_speed,14,7,215).
weather(ghi,14,7,0).
night(14,7).
pred(wind,14,8,96462).
pred(solar,14,8,4874).
pred(load,14,8,651707).
pred(price,14,8,16004).
weather(wind_speed,14,8,212).
weather(ghi,14,8,0).
night(14,8).
pred(wind,14,9,98860).
pred(solar,14,9,11104).
pred(load,14,9,646655).
pred(price,14,9,15576).
weather(wind_speed,14,9,260).
weather(ghi,14,9,0).
night(14,9).
pred(wind,14,10,106205).
pred(solar,14,10,15694).
pred(load,14,10,646818).
pred(price,14,10,15265).
weather(wind_speed,14,10,422).
weather(ghi,14,10,0).
night(14,10).
pred(wind,14,11,112919).
pred(solar,14,11,17662).
pred(load,14,11,641076).
pred(price,14,11,15062).
weather(wind_speed,14,11,350).
weather(ghi,14,11,0).
night(14,11).
pred(wind,14,12,113714).
pred(solar,14,12,16085).
pred(load,14,12,642765).
pred(price,14,12,15081).
weather(wind_speed,14,12,400).
weather(ghi,14,12,0).
night(14,12).
sample(15).
cap(wind,15,350000).
cap(solar,15,250000).
pred(wind,15,1,44180).
pred(solar,15,1,0).
pred(load,15,1,759706).
pred(price,15,1,18165).
weather(wind_speed,15,1,243).
weather(ghi,15,1,900).
pred(wind,15,2,50391).
pred(solar,15,2,0).
pred(load,15,2,779148).
pred(price,15,2,17668).
weather(wind_speed,15,2,184).
weather(ghi,15,2,0).
pred(wind,15,3,62546).
pred(solar,15,3,0).
pred(load,15,3,776835).
pred(price,15,3,16911).
weather(wind_speed,15,3,279).
weather(ghi,15,3,0).
pred(wind,15,4,68549).
pred(solar,15,4,0).
pred(load,15,4,756639).
pred(price,15,4,16347).
weather(wind_speed,15,4,352).
weather(ghi,15,4,0).
pred(wind,15,5,65222).
pred(solar,15,5,0).
pred(load,15,5,723904).
pred(price,15,5,15852).
weather(wind_speed,15,5,293).
weather(ghi,15,5,0).
pred(wind,15,6,62551).
pred(solar,15,6,0).
pred(load,15,6,689938).
pred(price,15,6,15395).
weather(wind_speed,15,6,215).
weather(ghi,15,6,0).
night(15,6).
pred(wind,15,7,68143).
pred(solar,15,7,0).
pred(load,15,7,657630).
pred(price,15,7,15138).
weather(wind_speed,15,7,212).
weather(ghi,15,7,0).
night(15,7).
pred(wind,15,8,72444).
pred(solar,15,8,0).
pred(load,15,8,630971).
pred(price,15,8,14895).
weather(wind_speed,15,8,260).
weather(ghi,15,8,0).
night(15,8).
pred(wind,15,9,73431).
pred(solar,15,9,2609).
pred(load,15,9,607549).
pred(price,15,9,14847).
weather(wind_speed,15,9,422).
weather(ghi,15,9,0).
night(15,9).
pred(wind,15,10,64210).
pred(solar,15,10,4914).
pred(load,15,10,582006).
pred(price,15,10,14793).
weather(wind_speed,15,10,350).
weather(ghi,15,10,0).
night(15,10).
pred(wind,15,11,59732).
pred(solar,15,11,4745).
pred(load,15,11,586819).
pred(price,15,11,14763).
weather(wind_speed,15,11,400).
weather(ghi,15,11,0).
night(15,11).
pred(wind,15,12,66580).
pred(solar,15,12,5104).
pred(load,15,12,612409).
pred(price,15,12,14860).
weather(wind_speed,15,12,380).
weather(ghi,15,12,0).
night(15,12).
sample(16).
cap(wind,16,350000).
cap(solar,16,250000).
pred(wind,16,1,54129).
pred(solar,16,1,0).
pred(load,16,1,774394).
pred(price,16,1,17772).
weather(wind_speed,16,1,184).
weather(ghi,16,1,0).
pred(wind,16,2,57651).
pred(solar,16,2,0).
pred(load,16,2,776197).
pred(price,16,2,17079).
weather(wind_speed,16,2,279).
weather(ghi,16,2,0).
pred(wind,16,3,69247).
pred(solar,16,3,0).
pred(load,16,3,770169).
pred(price,16,3,16298).
weather(wind_speed,16,3,352).
weather(ghi,16,3,0).
pred(wind,16,4,72087).
pred(solar,16,4,0).
pred(load,16,4,750950).
pred(price,16,4,15794).
weather(wind_speed,16,4,293).
weather(ghi,16,4,0).
pred(wind,16,5,65438).
pred(solar,16,5,0).
pred(load,16,5,724547).
pred(price,16,5,15472).
weather(wind_speed,16,5,215).
weather(ghi,16,5,0).
night(16,5).
pred(wind,16,6,68736).
pred(solar,16,6,0).
pred(load,16,6,699266).
pred(price,16,6,15236).
weather(wind_speed,16,6,212).
weather(ghi,16,6,0).
night(16,6).
pred(wind,16,7,72705).
pred(solar,16,7,0).
pred(load,16,7,667511).
pred(price,16,7,15071).
weather(wind_speed,16,7,260).
weather(ghi,16,7,0).
night(16,7).
pred(wind,16,8,79929).
pred(solar,16,8,0).
pred(load,16,8,640841).
pred(price,16,8,14970).
weather(wind_speed,16,8,422).
weather(ghi,16,8,0).
night(16,8).
pred(wind,16,9,85823).
pred(solar,16,9,0).
pred(load,16,9,631209).
pred(price,16,9,14923).
weather(wind_speed,16,9,350).
weather(ghi,16,9,0).
night(16,9).
pred(wind,16,10,88418).
pred(solar,16,10,1155).
pred(load,16,10,631220).
pred(price,16,10,14705).
weather(wind_speed,16,10,400).
weather(ghi,16,10,0).
night(16,10).
pred(wind,16,11,91852).
pred(solar,16,11,2048).
pred(load,16,11,659739).
pred(price,16,11,14576).
weather(wind_speed,16,11,380).
weather(ghi,16,11,0).
night(16,11).
pred(wind,16,12,100052).
pred(solar,16,12,3919).
pred(load,16,12,699261).
pred(price,16,12,14809).
weather(wind_speed,16,12,412).
weather(ghi,16,12,0).
night(16,12).
sample(17).
cap(wind,17,350000).
cap(solar,17,250000).
pred(wind,17,1,55852).
pred(solar,17,1,0).
pred(load,17,1,779280).
pred(price,17,1,17140).
weather(wind_speed,17,1,279).
weather(ghi,17,1,0).
pred(wind,17,2,59251).
pred(solar,17,2,0).
pred(load,17,2,775557).
pred(price,17,2,16397).
weather(wind_speed,17,2,352).
weather(ghi,17,2,0).
pred(wind,17,3,69834).
pred(solar,17,3,0).
pred(load,17,3,767042).
pred(price,17,3,15608).
weather(wind_speed,17,3,293).
weather(ghi,17,3,0).
pred(wind,17,4,70856).
pred(solar,17,4,0).
pred(load,17,4,750699).
pred(price,17,4,15157).
weather(wind_speed,17,4,215).
weather(ghi,17,4,0).
night(17,4).
pred(wind,17,5,62901).
pred(solar,17,5,0).
pred(load,17,5,723925).
pred(price,17,5,14895).
weather(wind_speed,17,5,212).
weather(ghi,17,5,0).
night(17,5).
pred(wind,17,6,63421).
pred(solar,17,6,0).
pred(load,17,6,698011).
pred(price,17,6,14685).
weather(wind_speed,17,6,260).
weather(ghi,17,6,0).
night(17,6).
pred(wind,17,7,66036).
pred(solar,17,7,0).
pred(load,17,7,665913).
pred(price,17,7,14534).
weather(wind_speed,17,7,422).
weather(ghi,17,7,0).
night(17,7).
pred(wind,17,8,74138).
pred(solar,17,8,0).
pred(load,17,8,639258).
pred(price,17,8,14428).
weather(wind_speed,17,8,350).
weather(ghi,17,8,0).
night(17,8).
pred(wind,17,9,80485).
pred(solar,17,9,910).
pred(load,17,9,630886).
pred(price,17,9,14353).
weather(wind_speed,17,9,400).
weather(ghi,17,9,0).
night(17,9).
pred(wind,17,10,82454).
pred(solar,17,10,1272).
pred(load,17,10,633853).
pred(price,17,10,14156).
weather(wind_speed,17,10,380).
weather(ghi,17,10,0).
night(17,10).
pred(wind,17,11,86638).
pred(solar,17,11,859).
pred(load,17,11,666437).
pred(price,17,11,14149).
weather(wind_speed,17,11,412).
weather(ghi,17,11,0).
night(17,11).
pred(wind,17,12,93707).
pred(solar,17,12,1947).
pred(load,17,12,709273).
pred(price,17,12,14523).
weather(wind_speed,17,12,311).
weather(ghi,17,12,0).
sample(18).
cap(wind,18,350000).
cap(solar,18,250000).
pred(wind,18,1,60628).
pred(solar,18,1,0).
pred(load,18,1,762966).
pred(price,18,1,19083).
weather(wind_speed,18,1,352).
weather(ghi,18,1,0).
pred(wind,18,2,61157).
pred(solar,18,2,0).
pred(load,18,2,759150).
pred(price,18,2,18049).
weather(wind_speed,18,2,293).
weather(ghi,18,2,0).
pred(wind,18,3,70397).
pred(solar,18,3,0).
pred(load,18,3,753825).
pred(price,18,3,17150).
weather(wind_speed,18,3,215).
weather(ghi,18,3,0).
night(18,3).
pred(wind,18,4,72315).
pred(solar,18,4,0).
pred(load,18,4,742896).
pred(price,18,4,16792).
weather(wind_speed,18,4,212).
weather(ghi,18,4,0).
night(18,4).
pred(wind,18,5,63711).
pred(solar,18,5,0).
pred(load,18,5,715599).
pred(price,18,5,16622).
weather(wind_speed,18,5,260).
weather(ghi,18,5,0).
night(18,5).
pred(wind,18,6,61653).
pred(solar,18,6,0).
pred(load,18,6,685367).
pred(price,18,6,16352).
weather(wind_speed,18,6,422).
weather(ghi,18,6,0).
night(18,6).
pred(wind,18,7,63225).
pred(solar,18,7,0).
pred(load,18,7,656896).
pred(price,18,7,16070).
weather(wind_speed,18,7,350).
weather(ghi,18,7,0).
night(18,7).
pred(wind,18,8,70492).
pred(solar,18,8,1831).
pred(load,18,8,639686).
pred(price,18,8,15943).
weather(wind_speed,18,8,400).
weather(ghi,18,8,0).
night(18,8).
pred(wind,18,9,75351).
pred(solar,18,9,4215).
pred(load,18,9,636362).
pred(price,18,9,15897).
weather(wind_speed,18,9,380).
weather(ghi,18,9,0).
night(18,9).
pred(wind,18,10,74493).
pred(solar,18,10,3976).
pred(load,18,10,639628).
pred(price,18,10,15754).
weather(wind_speed,18,10,412).
weather(ghi,18,10,0).
night(18,10).
pred(wind,18,11,78065).
pred(solar,18,11,2538).
pred(load,18,11,670013).
pred(price,18,11,15751).
weather(wind_speed,18,11,311).
weather(ghi,18,11,0).
pred(wind,18,12,81813).
pred(solar,18,12,2594).
pred(load,18,12,713037).
pred(price,18,12,16119).
weather(wind_speed,18,12,277).
weather(ghi,18,12,0).
sample(19).
cap(wind,19,350000).
cap(solar,19,250000).
pred(wind,19,1,57093).
pred(solar,19,1,0).
pred(load,19,1,730589).
pred(price,19,1,18955).
weather(wind_speed,19,1,293).
weather(ghi,19,1,0).
pred(wind,19,2,56385).
pred(solar,19,2,0).
pred(load,19,2,725043).
pred(price,19,2,17886).
weather(wind_speed,19,2,215).
weather(ghi,19,2,0).
night(19,2).
pred(wind,19,3,66227).
pred(solar,19,3,0).
pred(load,19,3,720432).
pred(price,19,3,17048).
weather(wind_speed,19,3,212).
weather(ghi,19,3,0).
night(19,3).
pred(wind,19,4,71940).
pred(solar,19,4,0).
pred(load,19,4,712968).
pred(price,19,4,16701).
weather(wind_speed,19,4,260).
weather(ghi,19,4,0).
night(19,4).
pred(wind,19,5,67159).
pred(solar,19,5,0).
pred(load,19,5,686319).
pred(price,19,5,16475).
weather(wind_speed,19,5,422).
weather(ghi,19,5,0).
night(19,5).
pred(wind,19,6,68869).
pred(solar,19,6,0).
pred(load,19,6,658943).
pred(price,19,6,16211).
weather(wind_speed,19,6,350).
weather(ghi,19,6,0).
night(19,6).
pred(wind,19,7,71996).
pred(solar,19,7,1493).
pred(load,19,7,638732).
pred(price,19,7,15969).
weather(wind_speed,19,7,400).
weather(ghi,19,7,0).
night(19,7).
pred(wind,19,8,79652).
pred(solar,19,8,4048).
pred(load,19,8,634411).
pred(price,19,8,15924).
weather(wind_speed,19,8,380).
weather(ghi,19,8,0).
night(19,8).
pred(wind,19,9,83745).
pred(solar,19,9,5778).
pred(load,19,9,638668).
pred(price,19,9,15943).
weather(wind_speed,19,9,412).
weather(ghi,19,9,0).
night(19,9).
pred(wind,19,10,84796).
pred(solar,19,10,4988).
pred(load,19,10,646788).
pred(price,19,10,15781).
weather(wind_speed,19,10,311).
weather(ghi,19,10,0).
pred(wind,19,11,89177).
pred(solar,19,11,2889).
pred(load,19,11,675302).
pred(price,19,11,15765).
weather(wind_speed,19,11,277).
weather(ghi,19,11,0).
pred(wind,19,12,92932).
pred(solar,19,12,2329).
pred(load,19,12,713163).
pred(price,19,12,16132).
weather(wind_speed,19,12,156).
weather(ghi,19,12,0).
sample(20).
cap(wind,20,350000).
cap(solar,20,250000).
pred(wind,20,1,45338).
pred(solar,20,1,0).
pred(load,20,1,699345).
pred(price,20,1,16422).
weather(wind_speed,20,1,215).
weather(ghi,20,1,0).
night(20,1).
pred(wind,20,2,45064).
pred(solar,20,2,0).
pred(load,20,2,696222).
pred(price,20,2,15529).
weather(wind_speed,20,2,212).
weather(ghi,20,2,0).
night(20,2).
pred(wind,20,3,54568).
pred(solar,20,3,0).
pred(load,20,3,696726).
pred(price,20,3,14818).
weather(wind_speed,20,3,260).
weather(ghi,20,3,0).
night(20,3).
pred(wind,20,4,64305).
pred(solar,20,4,0).
pred(load,20,4,694383).
pred(price,20,4,14531).
weather(wind_speed,20,4,422).
weather(ghi,20,4,0).
night(20,4).
pred(wind,20,5,63865).
pred(solar,20,5,2238).
pred(load,20,5,670705).
pred(price,20,5,14345).
weather(wind_speed,20,5,350).
weather(ghi,20,5,0).
night(20,5).
pred(wind,20,6,68983).
pred(solar,20,6,5860).
pred(load,20,6,648000).
pred(price,20,6,14123).
weather(wind_speed,20,6,400).
weather(ghi,20,6,0).
night(20,6).
pred(wind,20,7,73924).
pred(solar,20,7,7308).
pred(load,20,7,634287).
pred(price,20,7,13836).
weather(wind_speed,20,7,380).
weather(ghi,20,7,0).
night(20,7).
pred(wind,20,8,81497).
pred(solar,20,8,7305).
pred(load,20,8,633384).
pred(price,20,8,13752).
weather(wind_speed,20,8,412).
weather(ghi,20,8,0).
night(20,8).
pred(wind,20,9,83681).
pred(solar,20,9,6363).
pred(load,20,9,638664).
pred(price,20,9,13834).
weather(wind_speed,20,9,311).
weather(ghi,20,9,0).
pred(wind,20,10,81666).
pred(solar,20,10,3416).
pred(load,20,10,650118).
pred(price,20,10,13755).
weather(wind_speed,20,10,277).
weather(ghi,20,10,0).
pred(wind,20,11,80850).
pred(solar,20,11,322).
pred(load,20,11,676543).
pred(price,20,11,13810).
weather(wind_speed,20,11,156).
weather(ghi,20,11,0).
pred(wind,20,12,82129).
pred(solar,20,12,0).
pred(load,20,12,704468).
pred(price,20,12,14172).
weather(wind_speed,20,12,85).
weather(ghi,20,12,2400).
sample(21).
cap(wind,21,350000).
cap(solar,21,250000).
pred(wind,21,1,35126).
pred(solar,21,1,0).
pred(load,21,1,671046).
pred(price,21,1,14245).
weather(wind_speed,21,1,212).
weather(ghi,21,1,0).
night(21,1).
pred(wind,21,2,34282).
pred(solar,21,2,0).
pred(load,21,2,674226).
pred(price,21,2,13540).
weather(wind_speed,21,2,260).
weather(ghi,21,2,0).
night(21,2).
pred(wind,21,3,43620).
pred(solar,21,3,0).
pred(load,21,3,682060).
pred(price,21,3,12976).
weather(wind_speed,21,3,422).
weather(ghi,21,3,0).
night(21,3).
pred(wind,21,4,56042).
pred(solar,21,4,1600).
pred(load,21,4,685776).
pred(price,21,4,12732).
weather(wind_speed,21,4,350).
weather(ghi,21,4,0).
night(21,4).
pred(wind,21,5,59426).
pred(solar,21,5,4498).
pred(load,21,5,671874).
pred(price,21,5,12607).
weather(wind_speed,21,5,400).
weather(ghi,21,5,0).
night(21,5).
pred(wind,21,6,64677).
pred(solar,21,6,7260).
pred(load,21,6,657545).
pred(price,21,6,12458).
weather(wind_speed,21,6,380).
weather(ghi,21,6,0).
night(21,6).
pred(wind,21,7,70315).
pred(solar,21,7,7937).
pred(load,21,7,649098).
pred(price,21,7,12225).
weather(wind_speed,21,7,412).
weather(ghi,21,7,0).
night(21,7).
pred(wind,21,8,76956).
pred(solar,21,8,7090).
pred(load,21,8,646329).
pred(price,21,8,12110).
weather(wind_speed,21,8,311).
weather(ghi,21,8,0).
pred(wind,21,9,76937).
pred(solar,21,9,5823).
pred(load,21,9,649473).
pred(price,21,9,12143).
weather(wind_speed,21,9,277).
weather(ghi,21,9,0).
pred(wind,21,10,68525).
pred(solar,21,10,3378).
pred(load,21,10,664818).
pred(price,21,10,12147).
weather(wind_speed,21,10,156).
weather(ghi,21,10,0).
pred(wind,21,11,63174).
pred(solar,21,11,2025).
pred(load,21,11,696155).
pred(price,21,11,12380).
weather(wind_speed,21,11,85).
weather(ghi,21,11,2400).
pred(wind,21,12,64838).
pred(solar,21,12,4626).
pred(load,21,12,718974).
pred(price,21,12,12838).
weather(wind_speed,21,12,121).
weather(ghi,21,12,7600).
sample(22).
cap(wind,22,350000).
cap(solar,22,250000).
pred(wind,22,1,30683).
pred(solar,22,1,0).
pred(load,22,1,676735).
pred(price,22,1,13697).
weather(wind_speed,22,1,260).
weather(ghi,22,1,0).
night(22,1).
pred(wind,22,2,29554).
pred(solar,22,2,0).
pred(load,22,2,682919).
pred(price,22,2,13071).
weather(wind_speed,22,2,422).
weather(ghi,22,2,0).
night(22,2).
pred(wind,22,3,38605).
pred(solar,22,3,0).
pred(load,22,3,694754).
pred(price,22,3,12740).
weather(wind_speed,22,3,350).
weather(ghi,22,3,0).
night(22,3).
pred(wind,22,4,51357).
pred(solar,22,4,0).
pred(load,22,4,705756).
pred(price,22,4,12627).
weather(wind_speed,22,4,400).
weather(ghi,22,4,0).
night(22,4).
pred(wind,22,5,56739).
pred(solar,22,5,778).
pred(load,22,5,703115).
pred(price,22,5,12573).
weather(wind_speed,22,5,380).
weather(ghi,22,5,0).
night(22,5).
pred(wind,22,6,61881).
pred(solar,22,6,4590).
pred(load,22,6,700598).
pred(price,22,6,12455).
weather(wind_speed,22,6,412).
weather(ghi,22,6,0).
night(22,6).
pred(wind,22,7,68390).
pred(solar,22,7,7178).
pred(load,22,7,697533).
pred(price,22,7,12227).
weather(wind_speed,22,7,311).
weather(ghi,22,7,0).
pred(wind,22,8,73498).
pred(solar,22,8,8337).
pred(load,22,8,691650).
pred(price,22,8,12077).
weather(wind_speed,22,8,277).
weather(ghi,22,8,0).
pred(wind,22,9,72689).
pred(solar,22,9,8508).
pred(load,22,9,690177).
pred(price,22,9,12073).
weather(wind_speed,22,9,156).
weather(ghi,22,9,0).
pred(wind,22,10,61162).
pred(solar,22,10,6960).
pred(load,22,10,702198).
pred(price,22,10,12164).
weather(wind_speed,22,10,85).
weather(ghi,22,10,2400).
pred(wind,22,11,53751).
pred(solar,22,11,5872).
pred(load,22,11,730911).
pred(price,22,11,12501).
weather(wind_speed,22,11,121).
weather(ghi,22,11,7600).
pred(wind,22,12,58031).
pred(solar,22,12,7960).
pred(load,22,12,749764).
pred(price,22,12,12937).
weather(wind_speed,22,12,100).
weather(ghi,22,12,19900).
sample(23).
cap(wind,23,350000).
cap(solar,23,250000).
pred(wind,23,1,20164).
pred(solar,23,1,0).
pred(load,23,1,632798).
pred(price,23,1,12247).
weather(wind_speed,23,1,422).
weather(ghi,23,1,0).
night(23,1).
pred(wind,23,2,21250).
pred(solar,23,2,0).
pred(load,23,2,643619).
pred(price,23,2,11743).
weather(wind_speed,23,2,350).
weather(ghi,23,2,0).
night(23,2).
pred(wind,23,3,31565).
pred(solar,23,3,0).
pred(load,23,3,664913).
pred(price,23,3,11444).
weather(wind_speed,23,3,400).
weather(ghi,23,3,0).
night(23,3).
pred(wind,23,4,41814).
pred(solar,23,4,0).
pred(load,23,4,685253).
pred(price,23,4,11412).
weather(wind_speed,23,4,380).
weather(ghi,23,4,0).
night(23,4).
pred(wind,23,5,48290).
pred(solar,23,5,0).
pred(load,23,5,691893).
pred(price,23,5,11461).
weather(wind_speed,23,5,412).
weather(ghi,23,5,0).
night(23,5).
pred(wind,23,6,54198).
pred(solar,23,6,3307).
pred(load,23,6,696866).
pred(price,23,6,11462).
weather(wind_speed,23,6,311).
weather(ghi,23,6,0).
pred(wind,23,7,63650).
pred(solar,23,7,8969).
pred(load,23,7,696862).
pred(price,23,7,11318).
weather(wind_speed,23,7,277).
weather(ghi,23,7,0).
pred(wind,23,8,69029).
pred(solar,23,8,12146).
pred(load,23,8,688628).
pred(price,23,8,11141).
weather(wind_speed,23,8,156).
weather(ghi,23,8,0).
pred(wind,23,9,71849).
pred(solar,23,9,12634).
pred(load,23,9,683218).
pred(price,23,9,11124).
weather(wind_speed,23,9,85).
weather(ghi,23,9,2400).
pred(wind,23,10,62434).
pred(solar,23,10,10695).
pred(load,23,10,691700).
pred(price,23,10,11264).
weather(wind_speed,23,10,121).
weather(ghi,23,10,7600).
pred(wind,23,11,53862).
pred(solar,23,11,8794).
pred(load,23,11,716348).
pred(price,23,11,11631).
weather(wind_speed,23,11,100).
weather(ghi,23,11,19900).
pred(wind,23,12,55093).
pred(solar,23,12,10114).
pred(load,23,12,736318).
pred(price,23,12,11924).
weather(wind_speed,23,12,204).
weather(ghi,23,12,17200).
sample(24).
cap(wind,24,350000).
cap(solar,24,250000).
pred(wind,24,1,17935).
pred(solar,24,1,0).
pred(load,24,1,601421).
pred(price,24,1,10136).
weather(wind_speed,24,1,350).
weather(ghi,24,1,0).
night(24,1).
pred(wind,24,2,20390).
pred(solar,24,2,0).
pred(load,24,2,611497).
pred(price,24,2,9794).
weather(wind_speed,24,2,400).
weather(ghi,24,2,0).
night(24,2).
pred(wind,24,3,30505).
pred(solar,24,3,0).
pred(load,24,3,637918).
pred(price,24,3,9548).
weather(wind_speed,24,3,380).
weather(ghi,24,3,0).
night(24,3).
pred(wind,24,4,35964).
pred(solar,24,4,0).
pred(load,24,4,669995).
pred(price,24,4,9585).
weather(wind_speed,24,4,412).
weather(ghi,24,4,0).
night(24,4).
pred(wind,24,5,43472).
pred(solar,24,5,0).
pred(load,24,5,698229).
pred(price,24,5,9769).
weather(wind_speed,24,5,311).
weather(ghi,24,5,0).
pred(wind,24,6,51224).
pred(solar,24,6,602).
pred(load,24,6,715293).
pred(price,24,6,9913).
weather(wind_speed,24,6,277).
weather(ghi,24,6,0).
pred(wind,24,7,61927).
pred(solar,24,7,7747).
pred(load,24,7,717526).
pred(price,24,7,9818).
weather(wind_speed,24,7,156).
weather(ghi,24,7,0).
pred(wind,24,8,69883).
pred(solar,24,8,12979).
pred(load,24,8,703530).
pred(price,24,8,9535).
weather(wind_speed,24,8,85).
weather(ghi,24,8,2400).
pred(wind,24,9,73591).
pred(solar,24,9,15248).
pred(load,24,9,696171).
pred(price,24,9,9443).
weather(wind_speed,24,9,121).
weather(ghi,24,9,7600).
pred(wind,24,10,67486).
pred(solar,24,10,15802).
pred(load,24,10,707334).
pred(price,24,10,9470).
weather(wind_speed,24,10,100).
weather(ghi,24,10,19900).
pred(wind,24,11,58378).
pred(solar,24,11,15981).
pred(load,24,11,728215).
pred(price,24,11,9756).
weather(wind_speed,24,11,204).
weather(ghi,24,11,17200).
pred(wind,24,12,55425).
pred(solar,24,12,18545).
pred(load,24,12,741580).
pred(price,24,12,10074).
weather(wind_speed,24,12,260).
weather(ghi,24,12,9900).
sample(25).
cap(wind,25,350000).
cap(solar,25,250000).
pred(wind,25,1,42186).
pred(solar,25,1,5156).
pred(load,25,1,613060).
pred(price,25,1,9005).
weather(wind_speed,25,1,400).
weather(ghi,25,1,0).
night(25,1).
pred(wind,25,2,48251).
pred(solar,25,2,2711).
pred(load,25,2,608409).
pred(price,25,2,8806).
weather(wind_speed,25,2,380).
weather(ghi,25,2,0).
night(25,2).
pred(wind,25,3,53589).
pred(solar,25,3,896).
pred(load,25,3,628820).
pred(price,25,3,8607).
weather(wind_speed,25,3,412).
weather(ghi,25,3,0).
night(25,3).
pred(wind,25,4,52026).
pred(solar,25,4,276).
pred(load,25,4,669907).
pred(price,25,4,8505).
weather(wind_speed,25,4,311).
weather(ghi,25,4,0).
pred(wind,25,5,47467).
pred(solar,25,5,1466).
pred(load,25,5,715365).
pred(price,25,5,8632).
weather(wind_speed,25,5,277).
weather(ghi,25,5,0).
pred(wind,25,6,47452).
pred(solar,25,6,6636).
pred(load,25,6,746800).
pred(price,25,6,8830).
weather(wind_speed,25,6,156).
weather(ghi,25,6,0).
pred(wind,25,7,58990).
pred(solar,25,7,14941).
pred(load,25,7,747996).
pred(price,25,7,8920).
weather(wind_speed,25,7,85).
weather(ghi,25,7,2400).
pred(wind,25,8,72182).
pred(solar,25,8,23751).
pred(load,25,8,732733).
pred(price,25,8,8849).
weather(wind_speed,25,8,121).
weather(ghi,25,8,7600).
pred(wind,25,9,79516).
pred(solar,25,9,29536).
pred(load,25,9,724520).
pred(price,25,9,8885).
weather(wind_speed,25,9,100).
weather(ghi,25,9,19900).
pred(wind,25,10,80555).
pred(solar,25,10,31753).
pred(load,25,10,737190).
pred(price,25,10,8940).
weather(wind_speed,25,10,204).
weather(ghi,25,10,17200).
pred(wind,25,11,76562).
pred(solar,25,11,31840).
pred(load,25,11,748854).
pred(price,25,11,9191).
weather(wind_speed,25,11,260).
weather(ghi,25,11,9900).
pred(wind,25,12,68778).
pred(solar,25,12,31708).
pred(load,25,12,755758).
pred(price,25,12,9406).
weather(wind_speed,25,12,320).
weather(ghi,25,12,8500).
sample(26).
cap(wind,26,350000).
cap(solar,26,250000).
pred(wind,26,1,61090).
pred(solar,26,1,6872).
pred(load,26,1,615322).
pred(price,26,1,6991).
weather(wind_speed,26,1,380).
weather(ghi,26,1,0).
night(26,1).
pred(wind,26,2,67928).
pred(solar,26,2,4019).
pred(load,26,2,612687).
pred(price,26,2,6913).
weather(wind_speed,26,2,412).
weather(ghi,26,2,0).
night(26,2).
pred(wind,26,3,74915).
pred(solar,26,3,1859).
pred(load,26,3,632841).
pred(price,26,3,6848).
weather(wind_speed,26,3,311).
weather(ghi,26,3,0).
pred(wind,26,4,75646).
pred(solar,26,4,993).
pred(load,26,4,673095).
pred(price,26,4,6770).
weather(wind_speed,26,4,277).
weather(ghi,26,4,0).
pred(wind,26,5,69044).
pred(solar,26,5,2282).
pred(load,26,5,715181).
pred(price,26,5,6965).
weather(wind_speed,26,5,156).
weather(ghi,26,5,0).
pred(wind,26,6,67409).
pred(solar,26,6,7414).
pred(load,26,6,743751).
pred(price,26,6,7285).
weather(wind_speed,26,6,85).
weather(ghi,26,6,2400).
pred(wind,26,7,76002).
pred(solar,26,7,15171).
pred(load,26,7,746969).
pred(price,26,7,7494).
weather(wind_speed,26,7,121).
weather(ghi,26,7,7600).
pred(wind,26,8,86774).
pred(solar,26,8,23556).
pred(load,26,8,740153).
pred(price,26,8,7483).
weather(wind_speed,26,8,100).
weather(ghi,26,8,19900).
pred(wind,26,9,90494).
pred(solar,26,9,29273).
pred(load,26,9,735117).
pred(price,26,9,7409).
weather(wind_speed,26,9,204).
weather(ghi,26,9,17200).
pred(wind,26,10,90008).
pred(solar,26,10,31829).
pred(load,26,10,742983).
pred(price,26,10,7399).
weather(wind_speed,26,10,260).
weather(ghi,26,10,9900).
pred(wind,26,11,84573).
pred(solar,26,11,31937).
pred(load,26,11,746904).
pred(price,26,11,7634).
weather(wind_speed,26,11,320).
weather(ghi,26,11,8500).
pred(wind,26,12,73772).
pred(solar,26,12,31191).
pred(load,26,12,747707).
pred(price,26,12,7963).
weather(wind_speed,26,12,358).
weather(ghi,26,12,6400).
sample(27).
cap(wind,27,350000).
cap(solar,27,250000).
pred(wind,27,1,93251).
pred(solar,27,1,10244).
pred(load,27,1,628806).
pred(price,27,1,7005).
weather(wind_speed,27,1,412).
weather(ghi,27,1,0).
night(27,1).
pred(wind,27,2,100923).
pred(solar,27,2,7299).
pred(load,27,2,624567).
pred(price,27,2,7060).
weather(wind_speed,27,2,311).
weather(ghi,27,2,0).
pred(wind,27,3,106959).
pred(solar,27,3,4622).
pred(load,27,3,643060).
pred(price,27,3,7179).
weather(wind_speed,27,3,277).
weather(ghi,27,3,0).
pred(wind,27,4,105157).
pred(solar,27,4,3723).
pred(load,27,4,677267).
pred(price,27,4,7182).
weather(wind_speed,27,4,156).
weather(ghi,27,4,0).
pred(wind,27,5,95477).
pred(solar,27,5,5769).
pred(load,27,5,709201).
pred(price,27,5,7350).
weather(wind_speed,27,5,85).
weather(ghi,27,5,2400).
pred(wind,27,6,94695).
pred(solar,27,6,11321).
pred(load,27,6,729003).
pred(price,27,6,7508).
weather(wind_speed,27,6,121).
weather(ghi,27,6,7600).
pred(wind,27,7,106035).
pred(solar,27,7,18968).
pred(load,27,7,737164).
pred(price,27,7,7745).
weather(wind_speed,27,7,100).
weather(ghi,27,7,19900).
pred(wind,27,8,119383).
pred(solar,27,8,27025).
pred(load,27,8,735553).
pred(price,27,8,7754).
weather(wind_speed,27,8,204).
weather(ghi,27,8,17200).
pred(wind,27,9,124402).
pred(solar,27,9,32151).
pred(load,27,9,728997).
pred(price,27,9,7638).
weather(wind_speed,27,9,260).
weather(ghi,27,9,9900).
pred(wind,27,10,120135).
pred(solar,27,10,33656).
pred(load,27,10,728375).
pred(price,27,10,7512).
weather(wind_speed,27,10,320).
weather(ghi,27,10,8500).
pred(wind,27,11,114153).
pred(solar,27,11,32871).
pred(load,27,11,722040).
pred(price,27,11,7634).
weather(wind_speed,27,11,358).
weather(ghi,27,11,6400).
pred(wind,27,12,104252).
pred(solar,27,12,30263).
pred(load,27,12,717584).
pred(price,27,12,7919).
weather(wind_speed,27,12,275).
weather(ghi,27,12,4000).
sample(28).
cap(wind,28,350000).
cap(solar,28,250000).
pred(wind,28,1,98087).
pred(solar,28,1,9974).
pred(load,28,1,645505).
pred(price,28,1,7277).
weather(wind_speed,28,1,311).
weather(ghi,28,1,0).
pred(wind,28,2,106922).
pred(solar,28,2,7586).
pred(load,28,2,655929).
pred(price,28,2,7384).
weather(wind_speed,28,2,277).
weather(ghi,28,2,0).
pred(wind,28,3,111539).
pred(solar,28,3,6619).
pred(load,28,3,687657).
pred(price,28,3,7591).
weather(wind_speed,28,3,156).
weather(ghi,28,3,0).
pred(wind,28,4,106495).
pred(solar,28,4,6989).
pred(load,28,4,726418).
pred(price,28,4,7768).
weather(wind_speed,28,4,85).
weather(ghi,28,4,2400).
pred(wind,28,5,101760).
pred(solar,28,5,9257).
pred(load,28,5,756667).
pred(price,28,5,7999).
weather(wind_speed,28,5,121).
weather(ghi,28,5,7600).
pred(wind,28,6,106947).
pred(solar,28,6,14736).
pred(load,28,6,773218).
pred(price,28,6,8021).
weather(wind_speed,28,6,100).
weather(ghi,28,6,19900).
pred(wind,28,7,123471).
pred(solar,28,7,22348).
pred(load,28,7,775356).
pred(price,28,7,8019).
weather(wind_speed,28,7,204).
weather(ghi,28,7,17200).
pred(wind,28,8,140158).
pred(solar,28,8,30294).
pred(load,28,8,764626).
pred(price,28,8,7927).
weather(wind_speed,28,8,260).
weather(ghi,28,8,9900).
pred(wind,28,9,146349).
pred(solar,28,9,35198).
pred(load,28,9,747903).
pred(price,28,9,7929).
weather(wind_speed,28,9,320).
weather(ghi,28,9,8500).
pred(wind,28,10,143799).
pred(solar,28,10,35904).
pred(load,28,10,739691).
pred(price,28,10,8030).
weather(wind_speed,28,10,358).
weather(ghi,28,10,6400).
pred(wind,28,11,137242).
pred(solar,28,11,33303).
pred(load,28,11,730941).
pred(price,28,11,8391).
weather(wind_speed,28,11,275).
weather(ghi,28,11,4000).
pred(wind,28,12,128923).
pred(solar,28,12,29487).
pred(load,28,12,728654).
pred(price,28,12,8821).
weather(wind_speed,28,12,206).
weather(ghi,28,12,500).
sample(29).
cap(wind,29,350000).
cap(solar,29,250000).
pred(wind,29,1,73707).
pred(solar,29,1,0).
pred(load,29,1,635553).
pred(price,29,1,8035).
weather(wind_speed,29,1,277).
weather(ghi,29,1,0).
pred(wind,29,2,79820).
pred(solar,29,2,0).
pred(load,29,2,654881).
pred(price,29,2,8288).
weather(wind_speed,29,2,156).
weather(ghi,29,2,0).
pred(wind,29,3,83709).
pred(solar,29,3,0).
pred(load,29,3,681113).
pred(price,29,3,8328).
weather(wind_speed,29,3,85).
weather(ghi,29,3,2400).
pred(wind,29,4,82469).
pred(solar,29,4,2146).
pred(load,29,4,712228).
pred(price,29,4,8413).
weather(wind_speed,29,4,121).
weather(ghi,29,4,7600).
pred(wind,29,5,80438).
pred(solar,29,5,6472).
pred(load,29,5,729205).
pred(price,29,5,8469).
weather(wind_speed,29,5,100).
weather(ghi,29,5,19900).
pred(wind,29,6,83717).
pred(solar,29,6,12965).
pred(load,29,6,739666).
pred(price,29,6,8396).
weather(wind_speed,29,6,204).
weather(ghi,29,6,17200).
pred(wind,29,7,92729).
pred(solar,29,7,18874).
pred(load,29,7,740311).
pred(price,29,7,8283).
weather(wind_speed,29,7,260).
weather(ghi,29,7,9900).
pred(wind,29,8,102969).
pred(solar,29,8,23575).
pred(load,29,8,739901).
pred(price,29,8,8346).
weather(wind_speed,29,8,320).
weather(ghi,29,8,8500).
pred(wind,29,9,108528).
pred(solar,29,9,26258).
pred(load,29,9,740088).
pred(price,29,9,8547).
weather(wind_speed,29,9,358).
weather(ghi,29,9,6400).
pred(wind,29,10,107079).
pred(solar,29,10,25490).
pred(load,29,10,738745).
pred(price,29,10,8625).
weather(wind_speed,29,10,275).
weather(ghi,29,10,4000).
pred(wind,29,11,101235).
pred(solar,29,11,23053).
pred(load,29,11,746935).
pred(price,29,11,8838).
weather(wind_speed,29,11,206).
weather(ghi,29,11,500).
pred(wind,29,12,99036).
pred(solar,29,12,20584).
pred(load,29,12,764574).
pred(price,29,12,9223).
weather(wind_speed,29,12,150).
weather(ghi,29,12,0).
sample(30).
cap(wind,30,350000).
cap(solar,30,250000).
pred(wind,30,1,89526).
pred(solar,30,1,0).
pred(load,30,1,668946).
pred(price,30,1,10452).
weather(wind_speed,30,1,156).
weather(ghi,30,1,0).
pred(wind,30,2,87271).
pred(solar,30,2,0).
pred(load,30,2,686331).
pred(price,30,2,10484).
weather(wind_speed,30,2,85).
weather(ghi,30,2,2400).
pred(wind,30,3,84980).
pred(solar,30,3,0).
pred(load,30,3,703857).
pred(price,30,3,10374).
weather(wind_speed,30,3,121).
weather(ghi,30,3,7600).
pred(wind,30,4,82076).
pred(solar,30,4,0).
pred(load,30,4,721868).
pred(price,30,4,10331).
weather(wind_speed,30,4,100).
weather(ghi,30,4,19900).
pred(wind,30,5,84241).
pred(solar,30,5,3218).
pred(load,30,5,720888).
pred(price,30,5,10185).
weather(wind_speed,30,5,204).
weather(ghi,30,5,17200).
pred(wind,30,6,92670).
pred(solar,30,6,11210).
pred(load,30,6,719898).
pred(price,30,6,9991).
weather(wind_speed,30,6,260).
weather(ghi,30,6,9900).
pred(wind,30,7,96730).
pred(solar,30,7,17520).
pred(load,30,7,719459).
pred(price,30,7,9859).
weather(wind_speed,30,7,320).
weather(ghi,30,7,8500).
pred(wind,30,8,100299).
pred(solar,30,8,21993).
pred(load,30,8,727590).
pred(price,30,8,9901).
weather(wind_speed,30,8,358).
weather(ghi,30,8,6400).
pred(wind,30,9,102746).
pred(solar,30,9,23170).
pred(load,30,9,738418).
pred(price,30,9,10080).
weather(wind_speed,30,9,275).
weather(ghi,30,9,4000).
pred(wind,30,10,97949).
pred(solar,30,10,20098).
pred(load,30,10,743354).
pred(price,30,10,10123).
weather(wind_speed,30,10,206).
weather(ghi,30,10,500).
pred(wind,30,11,94716).
pred(solar,30,11,15101).
pred(load,30,11,762377).
pred(price,30,11,10289).
weather(wind_speed,30,11,150).
weather(ghi,30,11,0).
pred(wind,30,12,95626).
pred(solar,30,12,11425).
pred(load,30,12,788519).
pred(price,30,12,10711).
weather(wind_speed,30,12,149).
weather(ghi,30,12,0).
sample(31).
cap(wind,31,350000).
cap(solar,31,250000).
pred(wind,31,1,93645).
pred(solar,31,1,0).
pred(load,31,1,705957).
pred(price,31,1,12865).
weather(wind_speed,31,1,85).
weather(ghi,31,1,2400).
pred(wind,31,2,87962).
pred(solar,31,2,0).
pred(load,31,2,717769).
pred(price,31,2,12835).
weather(wind_speed,31,2,121).
weather(ghi,31,2,7600).
pred(wind,31,3,86458).
pred(solar,31,3,0).
pred(load,31,3,736327).
pred(price,31,3,12593).
weather(wind_speed,31,3,100).
weather(ghi,31,3,19900).
pred(wind,31,4,86061).
pred(solar,31,4,0).
pred(load,31,4,746284).
pred(price,31,4,12394).
weather(wind_speed,31,4,204).
weather(ghi,31,4,17200).
pred(wind,31,5,89793).
pred(solar,31,5,4827).
pred(load,31,5,732425).
pred(price,31,5,12192).
weather(wind_speed,31,5,260).
weather(ghi,31,5,9900).
pred(wind,31,6,102058).
pred(solar,31,6,11583).
pred(load,31,6,720823).
pred(price,31,6,12081).
weather(wind_speed,31,6,320).
weather(ghi,31,6,8500).
pred(wind,31,7,110529).
pred(solar,31,7,16935).
pred(load,31,7,722318).
pred(price,31,7,12057).
weather(wind_speed,31,7,358).
weather(ghi,31,7,6400).
pred(wind,31,8,117081).
pred(solar,31,8,21209).
pred(load,31,8,731762).
pred(price,31,8,12155).
weather(wind_speed,31,8,275).
weather(ghi,31,8,4000).
pred(wind,31,9,122321).
pred(solar,31,9,23534).
pred(load,31,9,736197).
pred(price,31,9,12294).
weather(wind_speed,31,9,206).
weather(ghi,31,9,500).
pred(wind,31,10,117656).
pred(solar,31,10,21616).
pred(load,31,10,730694).
pred(price,31,10,12243).
weather(wind_speed,31,10,150).
weather(ghi,31,10,0).
pred(wind,31,11,116038).
pred(solar,31,11,17532).
pred(load,31,11,745221).
pred(price,31,11,12271).
weather(wind_speed,31,11,149).
weather(ghi,31,11,0).
pred(wind,31,12,121769).
pred(solar,31,12,14790).
pred(load,31,12,767825).
pred(price,31,12,12581).
weather(wind_speed,31,12,175).
weather(ghi,31,12,0).
sample(32).
cap(wind,32,350000).
cap(solar,32,250000).
pred(wind,32,1,95534).
pred(solar,32,1,0).
pred(load,32,1,731635).
pred(price,32,1,14066).
weather(wind_speed,32,1,121).
weather(ghi,32,1,7600).
pred(wind,32,2,93051).
pred(solar,32,2,0).
pred(load,32,2,740516).
pred(price,32,2,13931).
weather(wind_speed,32,2,100).
weather(ghi,32,2,19900).
pred(wind,32,3,100468).
pred(solar,32,3,0).
pred(load,32,3,754271).
pred(price,32,3,13852).
weather(wind_speed,32,3,204).
weather(ghi,32,3,17200).
pred(wind,32,4,103031).
pred(solar,32,4,709).
pred(load,32,4,748859).
pred(price,32,4,13840).
weather(wind_speed,32,4,260).
weather(ghi,32,4,9900).
pred(wind,32,5,102530).
pred(solar,32,5,3736).
pred(load,32,5,727266).
pred(price,32,5,13655).
weather(wind_speed,32,5,320).
weather(ghi,32,5,8500).
pred(wind,32,6,114043).
pred(solar,32,6,7878).
pred(load,32,6,717958).
pred(price,32,6,13558).
weather(wind_speed,32,6,358).
weather(ghi,32,6,6400).
pred(wind,32,7,123957).
pred(solar,32,7,11050).
pred(load,32,7,723096).
pred(price,32,7,13562).
weather(wind_speed,32,7,275).
weather(ghi,32,7,4000).
pred(wind,32,8,129774).
pred(solar,32,8,12532).
pred(load,32,8,730397).
pred(price,32,8,13543).
weather(wind_speed,32,8,206).
weather(ghi,32,8,500).
pred(wind,32,9,133329).
pred(solar,32,9,13420).
pred(load,32,9,736392).
pred(price,32,9,13474).
weather(wind_speed,32,9,150).
weather(ghi,32,9,0).
pred(wind,32,10,130696).
pred(solar,32,10,11696).
pred(load,32,10,735608).
pred(price,32,10,13392).
weather(wind_speed,32,10,149).
weather(ghi,32,10,0).
pred(wind,32,11,131904).
pred(solar,32,11,9375).
pred(load,32,11,747811).
pred(price,32,11,13543).
weather(wind_speed,32,11,175).
weather(ghi,32,11,0).
pred(wind,32,12,134603).
pred(solar,32,12,10137).
pred(load,32,12,759411).
pred(price,32,12,13949).
weather(wind_speed,32,12,161).
weather(ghi,32,12,0).
sample(33).
cap(wind,33,350000).
cap(solar,33,250000).
pred(wind,33,1,83084).
pred(solar,33,1,4301).
pred(load,33,1,792811).
pred(price,33,1,14834).
weather(wind_speed,33,1,100).
weather(ghi,33,1,19900).
pred(wind,33,2,92904).
pred(solar,33,2,6888).
pred(load,33,2,811673).
pred(price,33,2,14624).
weather(wind_speed,33,2,204).
weather(ghi,33,2,17200).
pred(wind,33,3,99847).
pred(solar,33,3,9513).
pred(load,33,3,800166).
pred(price,33,3,14300).
weather(wind_speed,33,3,260).
weather(ghi,33,3,9900).
pred(wind,33,4,103426).
pred(solar,33,4,10398).
pred(load,33,4,776092).
pred(price,33,4,13856).
weather(wind_speed,33,4,320).
weather(ghi,33,4,8500).
pred(wind,33,5,112957).
pred(solar,33,5,10030).
pred(load,33,5,766791).
pred(price,33,5,13591).
weather(wind_speed,33,5,358).
weather(ghi,33,5,6400).
pred(wind,33,6,119485).
pred(solar,33,6,10883).
pred(load,33,6,764734).
pred(price,33,6,13554).
weather(wind_speed,33,6,275).
weather(ghi,33,6,4000).
pred(wind,33,7,123343).
pred(solar,33,7,13730).
pred(load,33,7,766176).
pred(price,33,7,13590).
weather(wind_speed,33,7,206).
weather(ghi,33,7,500).
pred(wind,33,8,119127).
pred(solar,33,8,17222).
pred(load,33,8,775413).
pred(price,33,8,13554).
weather(wind_speed,33,8,150).
weather(ghi,33,8,0).
pred(wind,33,9,116915).
pred(solar,33,9,18900).
pred(load,33,9,787775).
pred(price,33,9,13336).
weather(wind_speed,33,9,149).
weather(ghi,33,9,0).
pred(wind,33,10,118431).
pred(solar,33,10,17035).
pred(load,33,10,794837).
pred(price,33,10,13207).
weather(wind_speed,33,10,175).
weather(ghi,33,10,0).
pred(wind,33,11,122270).
pred(solar,33,11,13716).
pred(load,33,11,795919).
pred(price,33,11,13161).
weather(wind_speed,33,11,161).
weather(ghi,33,11,0).
pred(wind,33,12,130056).
pred(solar,33,12,11176).
pred(load,33,12,792965).
pred(price,33,12,13152).
weather(wind_speed,33,12,144).
weather(ghi,33,12,0).
night(33,12).
sample(34).
cap(wind,34,350000).
cap(solar,34,250000).
pred(wind,34,1,80734).
pred(solar,34,1,5438).
pred(load,34,1,755163).
pred(price,34,1,15828).
weather(wind_speed,34,1,204).
weather(ghi,34,1,17200).
pred(wind,34,2,88222).
pred(solar,34,2,7210).
pred(load,34,2,760700).
pred(price,34,2,15539).
weather(wind_speed,34,2,260).
weather(ghi,34,2,9900).
pred(wind,34,3,97386).
pred(solar,34,3,7902).
pred(load,34,3,761293).
pred(price,34,3,15204).
weather(wind_speed,34,3,320).
weather(ghi,34,3,8500).
pred(wind,34,4,103775).
pred(solar,34,4,7726).
pred(load,34,4,753290).
pred(price,34,4,14876).
weather(wind_speed,34,4,358).
weather(ghi,34,4,6400).
pred(wind,34,5,109383).
pred(solar,34,5,7268).
pred(load,34,5,747511).
pred(price,34,5,14628).
weather(wind_speed,34,5,275).
weather(ghi,34,5,4000).
pred(wind,34,6,117847).
pred(solar,34,6,7810).
pred(load,34,6,745168).
pred(price,34,6,14598).
weather(wind_speed,34,6,206).
weather(ghi,34,6,500).
pred(wind,34,7,123573).
pred(solar,34,7,10210).
pred(load,34,7,750258).
pred(price,34,7,14447).
weather(wind_speed,34,7,150).
weather(ghi,34,7,0).
pred(wind,34,8,124349).
pred(solar,34,8,13552).
pred(load,34,8,760056).
pred(price,34,8,14209).
weather(wind_speed,34,8,149).
weather(ghi,34,8,0).
pred(wind,34,9,125442).
pred(solar,34,9,16007).
pred(load,34,9,762700).
pred(price,34,9,13988).
weather(wind_speed,34,9,175).
weather(ghi,34,9,0).
pred(wind,34,10,123050).
pred(solar,34,10,16383).
pred(load,34,10,755964).
pred(price,34,10,13783).
weather(wind_speed,34,10,161).
weather(ghi,34,10,0).
pred(wind,34,11,124964).
pred(solar,34,11,15660).
pred(load,34,11,744487).
pred(price,34,11,13636).
weather(wind_speed,34,11,144).
weather(ghi,34,11,0).
night(34,11).
pred(wind,34,12,123008).
pred(solar,34,12,14182).
pred(load,34,12,734158).
pred(price,34,12,13575).
weather(wind_speed,34,12,124).
weather(ghi,34,12,0).
night(34,12).
sample(35).
cap(wind,35,350000).
cap(solar,35,250000).
pred(wind,35,1,70782).
pred(solar,35,1,8366).
pred(load,35,1,759312).
pred(price,35,1,17901).
weather(wind_speed,35,1,260).
weather(ghi,35,1,9900).
pred(wind,35,2,82135).
pred(solar,35,2,7692).
pred(load,35,2,757267).
pred(price,35,2,17645).
weather(wind_speed,35,2,320).
weather(ghi,35,2,8500).
pred(wind,35,3,93159).
pred(solar,35,3,5679).
pred(load,35,3,749019).
pred(price,35,3,17325).
weather(wind_speed,35,3,358).
weather(ghi,35,3,6400).
pred(wind,35,4,99467).
pred(solar,35,4,2901).
pred(load,35,4,737544).
pred(price,35,4,16967).
weather(wind_speed,35,4,275).
weather(ghi,35,4,4000).
pred(wind,35,5,105779).
pred(solar,35,5,474).
pred(load,35,5,730462).
pred(price,35,5,16673).
weather(wind_speed,35,5,206).
weather(ghi,35,5,500).
pred(wind,35,6,113396).
pred(solar,35,6,106).
pred(load,35,6,725022).
pred(price,35,6,16642).
weather(wind_speed,35,6,150).
weather(ghi,35,6,0).
pred(wind,35,7,120771).
pred(solar,35,7,2344).
pred(load,35,7,726857).
pred(price,35,7,16448).
weather(wind_speed,35,7,149).
weather(ghi,35,7,0).
pred(wind,35,8,125763).
pred(solar,35,8,6509).
pred(load,35,8,737007).
pred(price,35,8,16084).
weather(wind_speed,35,8,175).
weather(ghi,35,8,0).
pred(wind,35,9,129750).
pred(solar,35,9,10363).
pred(load,35,9,740553).
pred(price,35,9,15734).
weather(wind_speed,35,9,161).
weather(ghi,35,9,0).
pred(wind,35,10,129356).
pred(solar,35,10,12559).
pred(load,35,10,734360).
pred(price,35,10,15378).
weather(wind_speed,35,10,144).
weather(ghi,35,10,0).
night(35,10).
pred(wind,35,11,129941).
pred(solar,35,11,13899).
pred(load,35,11,723748).
pred(price,35,11,15139).
weather(wind_speed,35,11,124).
weather(ghi,35,11,0).
night(35,11).
pred(wind,35,12,127306).
pred(solar,35,12,15053).
pred(load,35,12,719285).
pred(price,35,12,15015).
weather(wind_speed,35,12,81).
weather(ghi,35,12,0).
night(35,12).
sample(36).
cap(wind,36,350000).
cap(solar,36,250000).
pred(wind,36,1,80939).
pred(solar,36,1,8061).
pred(load,36,1,749711).
pred(price,36,1,16985).
weather(wind_speed,36,1,320).
weather(ghi,36,1,8500).
pred(wind,36,2,93362).
pred(solar,36,2,7504).
pred(load,36,2,752121).
pred(price,36,2,16725).
weather(wind_speed,36,2,358).
weather(ghi,36,2,6400).
pred(wind,36,3,104061).
pred(solar,36,3,6333).
pred(load,36,3,753328).
pred(price,36,3,16470).
weather(wind_speed,36,3,275).
weather(ghi,36,3,4000).
pred(wind,36,4,110636).
pred(solar,36,4,5404).
pred(load,36,4,745617).
pred(price,36,4,16226).
weather(wind_speed,36,4,206).
weather(ghi,36,4,500).
pred(wind,36,5,116093).
pred(solar,36,5,4542).
pred(load,36,5,733686).
pred(price,36,5,16051).
weather(wind_speed,36,5,150).
weather(ghi,36,5,0).
pred(wind,36,6,121138).
pred(solar,36,6,5042).
pred(load,36,6,719953).
pred(price,36,6,16008).
weather(wind_speed,36,6,149).
weather(ghi,36,6,0).
pred(wind,36,7,125615).
pred(solar,36,7,7579).
pred(load,36,7,710352).
pred(price,36,7,15715).
weather(wind_speed,36,7,175).
weather(ghi,36,7,0).
pred(wind,36,8,127365).
pred(solar,36,8,11630).
pred(load,36,8,714309).
pred(price,36,8,15306).
weather(wind_speed,36,8,161).
weather(ghi,36,8,0).
pred(wind,36,9,129161).
pred(solar,36,9,15411).
pred(load,36,9,713726).
pred(price,36,9,14931).
weather(wind_speed,36,9,144).
weather(ghi,36,9,0).
night(36,9).
pred(wind,36,10,128836).
pred(solar,36,10,17565).
pred(load,36,10,709243).
pred(price,36,10,14633).
weather(wind_speed,36,10,124).
weather(ghi,36,10,0).
night(36,10).
pred(wind,36,11,130922).
pred(solar,36,11,18244).
pred(load,36,11,699620).
pred(price,36,11,14371).
weather(wind_speed,36,11,81).
weather(ghi,36,11,0).
night(36,11).
pred(wind,36,12,126505).
pred(solar,36,12,17211).
pred(load,36,12,698819).
pred(price,36,12,14215).
weather(wind_speed,36,12,92).
weather(ghi,36,12,0).
night(36,12).
sample(37).
cap(wind,37,350000).
cap(solar,37,250000).
pred(wind,37,1,97063).
pred(solar,37,1,9256).
pred(load,37,1,785127).
pred(price,37,1,15644).
weather(wind_speed,37,1,358).
weather(ghi,37,1,6400).
pred(wind,37,2,106622).
pred(solar,37,2,5333).
pred(load,37,2,794295).
pred(price,37,2,15468).
weather(wind_speed,37,2,275).
weather(ghi,37,2,4000).
pred(wind,37,3,116435).
pred(solar,37,3,1943).
pred(load,37,3,782267).
pred(price,37,3,15289).
weather(wind_speed,37,3,206).
weather(ghi,37,3,500).
pred(wind,37,4,126039).
pred(solar,37,4,0).
pred(load,37,4,759905).
pred(price,37,4,14970).
weather(wind_speed,37,4,150).
weather(ghi,37,4,0).
pred(wind,37,5,138167).
pred(solar,37,5,0).
pred(load,37,5,749175).
pred(price,37,5,14783).
weather(wind_speed,37,5,149).
weather(ghi,37,5,0).
pred(wind,37,6,142024).
pred(solar,37,6,497).
pred(load,37,6,737551).
pred(price,37,6,14687).
weather(wind_speed,37,6,175).
weather(ghi,37,6,0).
pred(wind,37,7,136918).
pred(solar,37,7,7193).
pred(load,37,7,719464).
pred(price,37,7,14599).
weather(wind_speed,37,7,161).
weather(ghi,37,7,0).
pred(wind,37,8,126095).
pred(solar,37,8,13548).
pred(load,37,8,707749).
pred(price,37,8,14389).
weather(wind_speed,37,8,144).
weather(ghi,37,8,0).
night(37,8).
pred(wind,37,9,120966).
pred(solar,37,9,16521).
pred(load,37,9,706517).
pred(price,37,9,14066).
weather(wind_speed,37,9,124).
weather(ghi,37,9,0).
night(37,9).
pred(wind,37,10,123972).
pred(solar,37,10,15765).
pred(load,37,10,707414).
pred(price,37,10,13861).
weather(wind_speed,37,10,81).
weather(ghi,37,10,0).
night(37,10).
pred(wind,37,11,126157).
pred(solar,37,11,14034).
pred(load,37,11,704666).
pred(price,37,11,13815).
weather(wind_speed,37,11,92).
weather(ghi,37,11,0).
night(37,11).
pred(wind,37,12,131558).
pred(solar,37,12,12221).
pred(load,37,12,707245).
pred(price,37,12,13740).
weather(wind_speed,37,12,60).
weather(ghi,37,12,0).
night(37,12).
sample(38).
cap(wind,38,350000).
cap(solar,38,250000).
pred(wind,38,1,61765).
pred(solar,38,1,0).
pred(load,38,1,728038).
pred(price,38,1,15641).
weather(wind_speed,38,1,275).
weather(ghi,38,1,4000).
pred(wind,38,2,66626).
pred(solar,38,2,0).
pred(load,38,2,729639).
pred(price,38,2,15458).
weather(wind_speed,38,2,206).
weather(ghi,38,2,500).
pred(wind,38,3,81935).
pred(solar,38,3,0).
pred(load,38,3,730648).
pred(price,38,3,15251).
weather(wind_speed,38,3,150).
weather(ghi,38,3,0).
pred(wind,38,4,91278).
pred(solar,38,4,0).
pred(load,38,4,720550).
pred(price,38,4,15131).
weather(wind_speed,38,4,149).
weather(ghi,38,4,0).
pred(wind,38,5,91626).
pred(solar,38,5,0).
pred(load,38,5,699025).
pred(price,38,5,15009).
weather(wind_speed,38,5,175).
weather(ghi,38,5,0).
pred(wind,38,6,98263).
pred(solar,38,6,0).
pred(load,38,6,674776).
pred(price,38,6,14950).
weather(wind_speed,38,6,161).
weather(ghi,38,6,0).
pred(wind,38,7,99940).
pred(solar,38,7,0).
pred(load,38,7,656736).
pred(price,38,7,14879).
weather(wind_speed,38,7,144).
weather(ghi,38,7,0).
night(38,7).
pred(wind,38,8,103872).
pred(solar,38,8,0).
pred(load,38,8,643483).
pred(price,38,8,14774).
weather(wind_speed,38,8,124).
weather(ghi,38,8,0).
night(38,8).
pred(wind,38,9,103785).
pred(solar,38,9,0).
pred(load,38,9,634576).
pred(price,38,9,14541).
weather(wind_speed,38,9,81).
weather(ghi,38,9,0).
night(38,9).
pred(wind,38,10,98331).
pred(solar,38,10,1343).
pred(load,38,10,622600).
pred(price,38,10,14176).
weather(wind_speed,38,10,92).
weather(ghi,38,10,0).
night(38,10).
pred(wind,38,11,101320).
pred(solar,38,11,3467).
pred(load,38,11,635993).
pred(price,38,11,14040).
weather(wind_speed,38,11,60).
weather(ghi,38,11,0).
night(38,11).
pred(wind,38,12,105854).
pred(solar,38,12,6198).
pred(load,38,12,660392).
pred(price,38,12,14396).
weather(wind_speed,38,12,64).
weather(ghi,38,12,0).
night(38,12).
sample(39).
cap(wind,39,350000).
cap(solar,39,250000).
pred(wind,39,1,64633).
pred(solar,39,1,1524).
pred(load,39,1,733828).
pred(price,39,1,16725).
weather(wind_speed,39,1,206).
weather(ghi,39,1,500).
pred(wind,39,2,65832).
pred(solar,39,2,0).
pred(load,39,2,739990).
pred(price,39,2,16613).
weather(wind_speed,39,2,150).
weather(ghi,39,2,0).
pred(wind,39,3,75290).
pred(solar,39,3,0).
pred(load,39,3,741961).
pred(price,39,3,16420).
weather(wind_speed,39,3,149).
weather(ghi,39,3,0).
pred(wind,39,4,81369).
pred(solar,39,4,0).
pred(load,39,4,735230).
pred(price,39,4,16238).
weather(wind_speed,39,4,175).
weather(ghi,39,4,0).
pred(wind,39,5,81190).
pred(solar,39,5,0).
pred(load,39,5,715000).
pred(price,39,5,16192).
weather(wind_speed,39,5,161).
weather(ghi,39,5,0).
pred(wind,39,6,86454).
pred(solar,39,6,0).
pred(load,39,6,700449).
pred(price,39,6,16214).
weather(wind_speed,39,6,144).
weather(ghi,39,6,0).
night(39,6).
pred(wind,39,7,93501).
pred(solar,39,7,0).
pred(load,39,7,697626).
pred(price,39,7,16189).
weather(wind_speed,39,7,124).
weather(ghi,39,7,0).
night(39,7).
pred(wind,39,8,102706).
pred(solar,39,8,0).
pred(load,39,8,696600).
pred(price,39,8,16127).
weather(wind_speed,39,8,81).
weather(ghi,39,8,0).
night(39,8).
pred(wind,39,9,101539).
pred(solar,39,9,0).
pred(load,39,9,694966).
pred(price,39,9,15876).
weather(wind_speed,39,9,92).
weather(ghi,39,9,0).
night(39,9).
pred(wind,39,10,98043).
pred(solar,39,10,2628).
pred(load,39,10,689893).
pred(price,39,10,15505).
weather(wind_speed,39,10,60).
weather(ghi,39,10,0).
night(39,10).
pred(wind,39,11,95747).
pred(solar,39,11,5721).
pred(load,39,11,702616).
pred(price,39,11,15356).
weather(wind_speed,39,11,64).
weather(ghi,39,11,0).
night(39,11).
pred(wind,39,12,95256).
pred(solar,39,12,8997).
pred(load,39,12,717481).
pred(price,39,12,15759).
weather(wind_speed,39,12,54).
weather(ghi,39,12,0).
night(39,12).
sample(40).
cap(wind,40,350000).
cap(solar,40,250000).
pred(wind,40,1,63727).
pred(solar,40,1,0).
pred(load,40,1,734925).
pred(price,40,1,17919).
weather(wind_speed,40,1,150).
weather(ghi,40,1,0).
pred(wind,40,2,67787).
pred(solar,40,2,0).
pred(load,40,2,736505).
pred(price,40,2,17726).
weather(wind_speed,40,2,149).
weather(ghi,40,2,0).
pred(wind,40,3,77734).
pred(solar,40,3,0).
pred(load,40,3,738760).
pred(price,40,3,17498).
weather(wind_speed,40,3,175).
weather(ghi,40,3,0).
pred(wind,40,4,83636).
pred(solar,40,4,0).
pred(load,40,4,736223).
pred(price,40,4,17332).
weather(wind_speed,40,4,161).
weather(ghi,40,4,0).
pred(wind,40,5,83353).
pred(solar,40,5,0).
pred(load,40,5,718642).
pred(price,40,5,17240).
weather(wind_speed,40,5,144).
weather(ghi,40,5,0).
night(40,5).
pred(wind,40,6,87761).
pred(solar,40,6,0).
pred(load,40,6,697623).
pred(price,40,6,17214).
weather(wind_speed,40,6,124).
weather(ghi,40,6,0).
night(40,6).
pred(wind,40,7,92106).
pred(solar,40,7,0).
pred(load,40,7,685248).
pred(price,40,7,17102).
weather(wind_speed,40,7,81).
weather(ghi,40,7,0).
night(40,7).
pred(wind,40,8,98609).
pred(solar,40,8,0).
pred(load,40,8,681170).
pred(price,40,8,16979).
weather(wind_speed,40,8,92).
weather(ghi,40,8,0).
night(40,8).
pred(wind,40,9,96703).
pred(solar,40,9,0).
pred(load,40,9,682989).
pred(price,40,9,16721).
weather(wind_speed,40,9,60).
weather(ghi,40,9,0).
night(40,9).
pred(wind,40,10,93650).
pred(solar,40,10,1833).
pred(load,40,10,684114).
pred(price,40,10,16376).
weather(wind_speed,40,10,64).
weather(ghi,40,10,0).
night(40,10).
pred(wind,40,11,93703).
pred(solar,40,11,5821).
pred(load,40,11,703225).
pred(price,40,11,16307).
weather(wind_speed,40,11,54).
weather(ghi,40,11,0).
night(40,11).
pred(wind,40,12,94344).
pred(solar,40,12,9636).
pred(load,40,12,725666).
pred(price,40,12,16741).
weather(wind_speed,40,12,70).
weather(ghi,40,12,0).
night(40,12).
sample(41).
cap(wind,41,350000).
cap(solar,41,250000).
pred(wind,41,1,66554).
pred(solar,41,1,0).
pred(load,41,1,740571).
pred(price,41,1,21767).
weather(wind_speed,41,1,149).
weather(ghi,41,1,0).
pred(wind,41,2,69556).
pred(solar,41,2,0).
pred(load,41,2,738128).
pred(price,41,2,21365).
weather(wind_speed,41,2,175).
weather(ghi,41,2,0).
pred(wind,41,3,78246).
pred(solar,41,3,0).
pred(load,41,3,739645).
pred(price,41,3,21004).
weather(wind_speed,41,3,161).
weather(ghi,41,3,0).
pred(wind,41,4,83402).
pred(solar,41,4,0).
pred(load,41,4,742518).
pred(price,41,4,20895).
weather(wind_speed,41,4,144).
weather(ghi,41,4,0).
night(41,4).
pred(wind,41,5,83483).
pred(solar,41,5,0).
pred(load,41,5,733964).
pred(price,41,5,20892).
weather(wind_speed,41,5,124).
weather(ghi,41,5,0).
night(41,5).
pred(wind,41,6,88866).
pred(solar,41,6,0).
pred(load,41,6,717336).
pred(price,41,6,20863).
weather(wind_speed,41,6,81).
weather(ghi,41,6,0).
night(41,6).
pred(wind,41,7,93948).
pred(solar,41,7,0).
pred(load,41,7,703456).
pred(price,41,7,20668).
weather(wind_speed,41,7,92).
weather(ghi,41,7,0).
night(41,7).
pred(wind,41,8,101747).
pred(solar,41,8,0).
pred(load,41,8,698132).
pred(price,41,8,20492).
weather(wind_speed,41,8,60).
weather(ghi,41,8,0).
night(41,8).
pred(wind,41,9,100992).
pred(solar,41,9,0).
pred(load,41,9,699988).
pred(price,41,9,20276).
weather(wind_speed,41,9,64).
weather(ghi,41,9,0).
night(41,9).
pred(wind,41,10,99358).
pred(solar,41,10,53).
pred(load,41,10,703582).
pred(price,41,10,19976).
weather(wind_speed,41,10,54).
weather(ghi,41,10,0).
night(41,10).
pred(wind,41,11,100716).
pred(solar,41,11,3759).
pred(load,41,11,727136).
pred(price,41,11,19970).
weather(wind_speed,41,11,70).
weather(ghi,41,11,0).
night(41,11).
pred(wind,41,12,100671).
pred(solar,41,12,7218).
pred(load,41,12,750485).
pred(price,41,12,20397).
weather(wind_speed,41,12,143).
weather(ghi,41,12,0).
sample(42).
cap(wind,42,350000).
cap(solar,42,250000).
pred(wind,42,1,67247).
pred(solar,42,1,0).
pred(load,42,1,738052).
pred(price,42,1,23040).
weather(wind_speed,42,1,175).
weather(ghi,42,1,0).
pred(wind,42,2,69372).
pred(solar,42,2,0).
pred(load,42,2,736790).
pred(price,42,2,22509).
weather(wind_speed,42,2,161).
weather(ghi,42,2,0).
pred(wind,42,3,77802).
pred(solar,42,3,0).
pred(load,42,3,742764).
pred(price,42,3,22144).
weather(wind_speed,42,3,144).
weather(ghi,42,3,0).
night(42,3).
pred(wind,42,4,83192).
pred(solar,42,4,0).
pred(load,42,4,750946).
pred(price,42,4,22135).
weather(wind_speed,42,4,124).
weather(ghi,42,4,0).
night(42,4).
pred(wind,42,5,83198).
pred(solar,42,5,0).
pred(load,42,5,749346).
pred(price,42,5,22224).
weather(wind_speed,42,5,81).
weather(ghi,42,5,0).
night(42,5).
pred(wind,42,6,88241).
pred(solar,42,6,0).
pred(load,42,6,745261).
pred(price,42,6,22220).
weather(wind_speed,42,6,92).
weather(ghi,42,6,0).
night(42,6).
pred(wind,42,7,95060).
pred(solar,42,7,0).
pred(load,42,7,746401).
pred(price,42,7,22076).
weather(wind_speed,42,7,60).
weather(ghi,42,7,0).
night(42,7).
pred(wind,42,8,105943).
pred(solar,42,8,0).
pred(load,42,8,751467).
pred(price,42,8,21935).
weather(wind_speed,42,8,64).
weather(ghi,42,8,0).
night(42,8).
pred(wind,42,9,106584).
pred(solar,42,9,0).
pred(load,42,9,755033).
pred(price,42,9,21797).
weather(wind_speed,42,9,54).
weather(ghi,42,9,0).
night(42,9).
pred(wind,42,10,105367).
pred(solar,42,10,1009).
pred(load,42,10,754680).
pred(price,42,10,21584).
weather(wind_speed,42,10,70).
weather(ghi,42,10,0).
night(42,10).
pred(wind,42,11,107359).
pred(solar,42,11,4123).
pred(load,42,11,768616).
pred(price,42,11,21625).
weather(wind_speed,42,11,143).
weather(ghi,42,11,0).
pred(wind,42,12,110191).
pred(solar,42,12,6524).
pred(load,42,12,781611).
pred(price,42,12,22002).
weather(wind_speed,42,12,208).
weather(ghi,42,12,0).
sample(43).
cap(wind,43,350000).
cap(solar,43,250000).
pred(wind,43,1,72276).
pred(solar,43,1,3924).
pred(load,43,1,729255).
pred(price,43,1,22066).
weather(wind_speed,43,1,161).
weather(ghi,43,1,0).
pred(wind,43,2,74867).
pred(solar,43,2,0).
pred(load,43,2,725483).
pred(price,43,2,21507).
weather(wind_speed,43,2,144).
weather(ghi,43,2,0).
night(43,2).
pred(wind,43,3,81388).
pred(solar,43,3,0).
pred(load,43,3,731097).
pred(price,43,3,21278).
weather(wind_speed,43,3,124).
weather(ghi,43,3,0).
night(43,3).
pred(wind,43,4,84705).
pred(solar,43,4,0).
pred(load,43,4,740838).
pred(price,43,4,21339).
weather(wind_speed,43,4,81).
weather(ghi,43,4,0).
night(43,4).
pred(wind,43,5,82354).
pred(solar,43,5,0).
pred(load,43,5,743847).
pred(price,43,5,21557).
weather(wind_speed,43,5,92).
weather(ghi,43,5,0).
night(43,5).
pred(wind,43,6,84275).
pred(solar,43,6,0).
pred(load,43,6,751580).
pred(price,43,6,21630).
weather(wind_speed,43,6,60).
weather(ghi,43,6,0).
night(43,6).
pred(wind,43,7,89987).
pred(solar,43,7,0).
pred(load,43,7,770325).
pred(price,43,7,21611).
weather(wind_speed,43,7,64).
weather(ghi,43,7,0).
night(43,7).
pred(wind,43,8,100857).
pred(solar,43,8,0).
pred(load,43,8,788853).
pred(price,43,8,21560).
weather(wind_speed,43,8,54).
weather(ghi,43,8,0).
night(43,8).
pred(wind,43,9,102141).
pred(solar,43,9,0).
pred(load,43,9,798344).
pred(price,43,9,21395).
weather(wind_speed,43,9,70).
weather(ghi,43,9,0).
night(43,9).
pred(wind,43,10,100567).
pred(solar,43,10,5601).
pred(load,43,10,791736).
pred(price,43,10,21142).
weather(wind_speed,43,10,143).
weather(ghi,43,10,0).
pred(wind,43,11,101264).
pred(solar,43,11,9821).
pred(load,43,11,792221).
pred(price,43,11,21115).
weather(wind_speed,43,11,208).
weather(ghi,43,11,0).
pred(wind,43,12,105230).
pred(solar,43,12,13024).
pred(load,43,12,792307).
pred(price,43,12,21391).
weather(wind_speed,43,12,286).
weather(ghi,43,12,0).
sample(44).
cap(wind,44,350000).
cap(solar,44,250000).
pred(wind,44,1,69360).
pred(solar,44,1,716).
pred(load,44,1,710547).
pred(price,44,1,21481).
weather(wind_speed,44,1,144).
weather(ghi,44,1,0).
night(44,1).
pred(wind,44,2,74903).
pred(solar,44,2,0).
pred(load,44,2,712958).
pred(price,44,2,20729).
weather(wind_speed,44,2,124).
weather(ghi,44,2,0).
night(44,2).
pred(wind,44,3,82370).
pred(solar,44,3,0).
pred(load,44,3,720076).
pred(price,44,3,20355).
weather(wind_speed,44,3,81).
weather(ghi,44,3,0).
night(44,3).
pred(wind,44,4,87576).
pred(solar,44,4,0).
pred(load,44,4,733256).
pred(price,44,4,20338).
weather(wind_speed,44,4,92).
weather(ghi,44,4,0).
night(44,4).
pred(wind,44,5,87648).
pred(solar,44,5,0).
pred(load,44,5,739531).
pred(price,44,5,20637).
weather(wind_speed,44,5,60).
weather(ghi,44,5,0).
night(44,5).
pred(wind,44,6,87939).
pred(solar,44,6,0).
pred(load,44,6,752260).
pred(price,44,6,20867).
weather(wind_speed,44,6,64).
weather(ghi,44,6,0).
night(44,6).
pred(wind,44,7,90223).
pred(solar,44,7,0).
pred(load,44,7,774868).
pred(price,44,7,21042).
weather(wind_speed,44,7,54).
weather(ghi,44,7,0).
night(44,7).
pred(wind,44,8,98939).
pred(solar,44,8,0).
pred(load,44,8,800114).
pred(price,44,8,21132).
weather(wind_speed,44,8,70).
weather(ghi,44,8,0).
night(44,8).
pred(wind,44,9,100267).
pred(solar,44,9,1260).
pred(load,44,9,817496).
pred(price,44,9,20985).
weather(wind_speed,44,9,143).
weather(ghi,44,9,0).
pred(wind,44,10,97246).
pred(solar,44,10,4940).
pred(load,44,10,813167).
pred(price,44,10,20786).
weather(wind_speed,44,10,208).
weather(ghi,44,10,0).
pred(wind,44,11,98005).
pred(solar,44,11,7726).
pred(load,44,11,809225).
pred(price,44,11,20759).
weather(wind_speed,44,11,286).
weather(ghi,44,11,0).
pred(wind,44,12,99483).
pred(solar,44,12,11188).
pred(load,44,12,807909).
pred(price,44,12,20984).
weather(wind_speed,44,12,318).
weather(ghi,44,12,1600).
sample(45).
cap(wind,45,350000).
cap(solar,45,250000).
pred(wind,45,1,68348).
pred(solar,45,1,881).
pred(load,45,1,693092).
pred(price,45,1,19669).
weather(wind_speed,45,1,124).
weather(ghi,45,1,0).
night(45,1).
pred(wind,45,2,74170).
pred(solar,45,2,0).
pred(load,45,2,695727).
pred(price,45,2,19102).
weather(wind_speed,45,2,81).
weather(ghi,45,2,0).
night(45,2).
pred(wind,45,3,80798).
pred(solar,45,3,0).
pred(load,45,3,706016).
pred(price,45,3,18924).
weather(wind_speed,45,3,92).
weather(ghi,45,3,0).
night(45,3).
pred(wind,45,4,84267).
pred(solar,45,4,0).
pred(load,45,4,726056).
pred(price,45,4,19105).
weather(wind_speed,45,4,60).
weather(ghi,45,4,0).
night(45,4).
pred(wind,45,5,84608).
pred(solar,45,5,0).
pred(load,45,5,741330).
pred(price,45,5,19547).
weather(wind_speed,45,5,64).
weather(ghi,45,5,0).
night(45,5).
pred(wind,45,6,86357).
pred(solar,45,6,0).
pred(load,45,6,759127).
pred(price,45,6,19945).
weather(wind_speed,45,6,54).
weather(ghi,45,6,0).
night(45,6).
pred(wind,45,7,90626).
pred(solar,45,7,0).
pred(load,45,7,782752).
pred(price,45,7,20267).
weather(wind_speed,45,7,70).
weather(ghi,45,7,0).
night(45,7).
pred(wind,45,8,100376).
pred(solar,45,8,0).
pred(load,45,8,808308).
pred(price,45,8,20389).
weather(wind_speed,45,8,143).
weather(ghi,45,8,0).
pred(wind,45,9,102509).
pred(solar,45,9,1078).
pred(load,45,9,829057).
pred(price,45,9,20224).
weather(wind_speed,45,9,208).
weather(ghi,45,9,0).
pred(wind,45,10,100094).
pred(solar,45,10,5192).
pred(load,45,10,827978).
pred(price,45,10,19977).
weather(wind_speed,45,10,286).
weather(ghi,45,10,0).
pred(wind,45,11,100759).
pred(solar,45,11,8150).
pred(load,45,11,822912).
pred(price,45,11,19885).
weather(wind_speed,45,11,318).
weather(ghi,45,11,1600).
pred(wind,45,12,103269).
pred(solar,45,12,11333).
pred(load,45,12,819237).
pred(price,45,12,19987).
weather(wind_speed,45,12,362).
weather(ghi,45,12,5400).
sample(46).
cap(wind,46,350000).
cap(solar,46,250000).
pred(wind,46,1,66003).
pred(solar,46,1,1452).
pred(load,46,1,681786).
pred(price,46,1,19064).
weather(wind_speed,46,1,81).
weather(ghi,46,1,0).
night(46,1).
pred(wind,46,2,73024).
pred(solar,46,2,0).
pred(load,46,2,684328).
pred(price,46,2,18545).
weather(wind_speed,46,2,92).
weather(ghi,46,2,0).
night(46,2).
pred(wind,46,3,76801).
pred(solar,46,3,0).
pred(load,46,3,699128).
pred(price,46,3,18456).
weather(wind_speed,46,3,60).
weather(ghi,46,3,0).
night(46,3).
pred(wind,46,4,78571).
pred(solar,46,4,0).
pred(load,46,4,728189).
pred(price,46,4,18748).
weather(wind_speed,46,4,64).
weather(ghi,46,4,0).
night(46,4).
pred(wind,46,5,79835).
pred(solar,46,5,0).
pred(load,46,5,757641).
pred(price,46,5,19337).
weather(wind_speed,46,5,54).
weather(ghi,46,5,0).
night(46,5).
pred(wind,46,6,83604).
pred(solar,46,6,0).
pred(load,46,6,788794).
pred(price,46,6,19877).
weather(wind_speed,46,6,70).
weather(ghi,46,6,0).
night(46,6).
pred(wind,46,7,89131).
pred(solar,46,7,0).
pred(load,46,7,817461).
pred(price,46,7,20312).
weather(wind_speed,46,7,143).
weather(ghi,46,7,0).
pred(wind,46,8,98632).
pred(solar,46,8,997).
pred(load,46,8,840119).
pred(price,46,8,20442).
weather(wind_speed,46,8,208).
weather(ghi,46,8,0).
pred(wind,46,9,101009).
pred(solar,46,9,6268).
pred(load,46,9,853089).
pred(price,46,9,20237).
weather(wind_speed,46,9,286).
weather(ghi,46,9,0).
pred(wind,46,10,99638).
pred(solar,46,10,10383).
pred(load,46,10,844875).
pred(price,46,10,19934).
weather(wind_speed,46,10,318).
weather(ghi,46,10,1600).
pred(wind,46,11,101100).
pred(solar,46,11,13288).
pred(load,46,11,831869).
pred(price,46,11,19818).
weather(wind_speed,46,11,362).
weather(ghi,46,11,5400).
pred(wind,46,12,105170).
pred(solar,46,12,16108).
pred(load,46,12,822694).
pred(price,46,12,19859).
weather(wind_speed,46,12,367).
weather(ghi,46,12,6800).
sample(47).
cap(wind,47,350000).
cap(solar,47,250000).
pred(wind,47,1,73083).
pred(solar,47,1,5020).
pred(load,47,1,680244).
pred(price,47,1,17267).
weather(wind_speed,47,1,92).
weather(ghi,47,1,0).
night(47,1).
pred(wind,47,2,81373).
pred(solar,47,2,1610).
pred(load,47,2,692301).
pred(price,47,2,16916).
weather(wind_speed,47,2,60).
weather(ghi,47,2,0).
night(47,2).
pred(wind,47,3,86207).
pred(solar,47,3,0).
pred(load,47,3,718900).
pred(price,47,3,17000).
weather(wind_speed,47,3,64).
weather(ghi,47,3,0).
night(47,3).
pred(wind,47,4,86538).
pred(solar,47,4,0).
pred(load,47,4,756907).
pred(price,47,4,17474).
weather(wind_speed,47,4,54).
weather(ghi,47,4,0).
night(47,4).
pred(wind,47,5,86093).
pred(solar,47,5,0).
pred(load,47,5,792968).
pred(price,47,5,18199).
weather(wind_speed,47,5,70).
weather(ghi,47,5,0).
night(47,5).
pred(wind,47,6,89509).
pred(solar,47,6,0).
pred(load,47,6,827800).
pred(price,47,6,18865).
weather(wind_speed,47,6,143).
weather(ghi,47,6,0).
pred(wind,47,7,95415).
pred(solar,47,7,0).
pred(load,47,7,853501).
pred(price,47,7,19295).
weather(wind_speed,47,7,208).
weather(ghi,47,7,0).
pred(wind,47,8,105219).
pred(solar,47,8,618).
pred(load,47,8,871322).
pred(price,47,8,19341).
weather(wind_speed,47,8,286).
weather(ghi,47,8,0).
pred(wind,47,9,109038).
pred(solar,47,9,6959).
pred(load,47,9,878007).
pred(price,47,9,19062).
weather(wind_speed,47,9,318).
weather(ghi,47,9,1600).
pred(wind,47,10,107308).
pred(solar,47,10,12448).
pred(load,47,10,861452).
pred(price,47,10,18683).
weather(wind_speed,47,10,362).
weather(ghi,47,10,5400).
pred(wind,47,11,106559).
pred(solar,47,11,16059).
pred(load,47,11,841002).
pred(price,47,11,18504).
weather(wind_speed,47,11,367).
weather(ghi,47,11,6800).
pred(wind,47,12,108166).
pred(solar,47,12,18398).
pred(load,47,12,831606).
pred(price,47,12,18538).
weather(wind_speed,47,12,438).
weather(ghi,47,12,9500).
sample(48).
cap(wind,48,350000).
cap(solar,48,250000).
pred(wind,48,1,84874).
pred(solar,48,1,8219).
pred(load,48,1,690616).
pred(price,48,1,18696).
weather(wind_speed,48,1,60).
weather(ghi,48,1,0).
night(48,1).
pred(wind,48,2,94090).
pred(solar,48,2,4797).
pred(load,48,2,706307).
pred(price,48,2,18387).
weather(wind_speed,48,2,64).
weather(ghi,48,2,0).
night(48,2).
pred(wind,48,3,99292).
pred(solar,48,3,0).
pred(load,48,3,737264).
pred(price,48,3,18551).
weather(wind_speed,48,3,54).
weather(ghi,48,3,0).
night(48,3).
pred(wind,48,4,98657).
pred(solar,48,4,0).
pred(load,48,4,779686).
pred(price,48,4,19089).
weather(wind_speed,48,4,70).
weather(ghi,48,4,0).
night(48,4).
pred(wind,48,5,99252).
pred(solar,48,5,0).
pred(load,48,5,819728).
pred(price,48,5,19811).
weather(wind_speed,48,5,143).
weather(ghi,48,5,0).
pred(wind,48,6,104976).
pred(solar,48,6,0).
pred(load,48,6,855175).
pred(price,48,6,20451).
weather(wind_speed,48,6,208).
weather(ghi,48,6,0).
pred(wind,48,7,112054).
pred(solar,48,7,0).
pred(load,48,7,876102).
pred(price,48,7,20812).
weather(wind_speed,48,7,286).
weather(ghi,48,7,0).
pred(wind,48,8,120927).
pred(solar,48,8,0).
pred(load,48,8,889425).
pred(price,48,8,20765).
weather(wind_speed,48,8,318).
weather(ghi,48,8,1600).
pred(wind,48,9,124069).
pred(solar,48,9,5124).
pred(load,48,9,894694).
pred(price,48,9,20437).
weather(wind_speed,48,9,362).
weather(ghi,48,9,5400).
pred(wind,48,10,120227).
pred(solar,48,10,10633).
pred(load,48,10,878150).
pred(price,48,10,20045).
weather(wind_speed,48,10,367).
weather(ghi,48,10,6800).
pred(wind,48,11,116836).
pred(solar,48,11,13945).
pred(load,48,11,858981).
pred(price,48,11,19852).
weather(wind_speed,48,11,438).
weather(ghi,48,11,9500).
pred(wind,48,12,113349).
pred(solar,48,12,15359).
pred(load,48,12,850259).
pred(price,48,12,19888).
weather(wind_speed,48,12,437).
weather(ghi,48,12,8800).
sample(49).
cap(wind,49,350000).
cap(solar,49,250000).
pred(wind,49,1,81264).
pred(solar,49,1,9706).
pred(load,49,1,686154).
pred(price,49,1,16803).
weather(wind_speed,49,1,64).
weather(ghi,49,1,0).
night(49,1).
pred(wind,49,2,85617).
pred(solar,49,2,5940).
pred(load,49,2,708217).
pred(price,49,2,16744).
weather(wind_speed,49,2,54).
weather(ghi,49,2,0).
night(49,2).
pred(wind,49,3,86870).
pred(solar,49,3,186).
pred(load,49,3,748167).
pred(price,49,3,17027).
weather(wind_speed,49,3,70).
weather(ghi,49,3,0).
night(49,3).
pred(wind,49,4,86307).
pred(solar,49,4,0).
pred(load,49,4,796535).
pred(price,49,4,17547).
weather(wind_speed,49,4,143).
weather(ghi,49,4,0).
pred(wind,49,5,87677).
pred(solar,49,5,0).
pred(load,49,5,830149).
pred(price,49,5,18183).
weather(wind_speed,49,5,208).
weather(ghi,49,5,0).
pred(wind,49,6,95245).
pred(solar,49,6,0).
pred(load,49,6,855093).
pred(price,49,6,18709).
weather(wind_speed,49,6,286).
weather(ghi,49,6,0).
pred(wind,49,7,102311).
pred(solar,49,7,0).
pred(load,49,7,869254).
pred(price,49,7,18971).
weather(wind_speed,49,7,318).
weather(ghi,49,7,1600).
pred(wind,49,8,111600).
pred(solar,49,8,434).
pred(load,49,8,881864).
pred(price,49,8,18874).
weather(wind_speed,49,8,362).
weather(ghi,49,8,5400).
pred(wind,49,9,116410).
pred(solar,49,9,6434).
pred(load,49,9,890437).
pred(price,49,9,18604).
weather(wind_speed,49,9,367).
weather(ghi,49,9,6800).
pred(wind,49,10,112738).
pred(solar,49,10,11414).
pred(load,49,10,879871).
pred(price,49,10,18296).
weather(wind_speed,49,10,438).
weather(ghi,49,10,9500).
pred(wind,49,11,106767).
pred(solar,49,11,14362).
pred(load,49,11,870617).
pred(price,49,11,18158).
weather(wind_speed,49,11,437).
weather(ghi,49,11,8800).
pred(wind,49,12,101015).
pred(solar,49,12,15692).
pred(load,49,12,868310).
pred(price,49,12,18254).
weather(wind_speed,49,12,459).
weather(ghi,49,12,7300).
sample(50).
cap(wind,50,350000).
cap(solar,50,250000).
pred(wind,50,1,80328).
pred(solar,50,1,10113).
pred(load,50,1,699634).
pred(price,50,1,16072).
weather(wind_speed,50,1,54).
weather(ghi,50,1,0).
night(50,1).
pred(wind,50,2,82390).
pred(solar,50,2,6793).
pred(load,50,2,728084).
pred(price,50,2,16279).
weather(wind_speed,50,2,70).
weather(ghi,50,2,0).
night(50,2).
pred(wind,50,3,81320).
pred(solar,50,3,826).
pred(load,50,3,767134).
pred(price,50,3,16792).
weather(wind_speed,50,3,143).
weather(ghi,50,3,0).
pred(wind,50,4,81188).
pred(solar,50,4,0).
pred(load,50,4,813136).
pred(price,50,4,17385).
weather(wind_speed,50,4,208).
weather(ghi,50,4,0).
pred(wind,50,5,83632).
pred(solar,50,5,0).
pred(load,50,5,837193).
pred(price,50,5,17867).
weather(wind_speed,50,5,286).
weather(ghi,50,5,0).
pred(wind,50,6,95973).
pred(solar,50,6,0).
pred(load,50,6,846339).
pred(price,50,6,18062).
weather(wind_speed,50,6,318).
weather(ghi,50,6,1600).
pred(wind,50,7,103907).
pred(solar,50,7,0).
pred(load,50,7,847589).
pred(price,50,7,18095).
weather(wind_speed,50,7,362).
weather(ghi,50,7,5400).
pred(wind,50,8,115838).
pred(solar,50,8,6622).
pred(load,50,8,857368).
pred(price,50,8,17942).
weather(wind_speed,50,8,367).
weather(ghi,50,8,6800).
pred(wind,50,9,122249).
pred(solar,50,9,12903).
pred(load,50,9,868066).
pred(price,50,9,17779).
weather(wind_speed,50,9,438).
weather(ghi,50,9,9500).
pred(wind,50,10,116860).
pred(solar,50,10,16445).
pred(load,50,10,855769).
pred(price,50,10,17536).
weather(wind_speed,50,10,437).
weather(ghi,50,10,8800).
pred(wind,50,11,109385).
pred(solar,50,11,16542).
pred(load,50,11,857398).
pred(price,50,11,17445).
weather(wind_speed,50,11,459).
weather(ghi,50,11,7300).
pred(wind,50,12,103577).
pred(solar,50,12,15648).
pred(load,50,12,875620).
pred(price,50,12,17590).
weather(wind_speed,50,12,449).
weather(ghi,50,12,4200).
sample(51).
cap(wind,51,350000).
cap(solar,51,250000).
pred(wind,51,1,78281).
pred(solar,51,1,1716).
pred(load,51,1,728275).
pred(price,51,1,16740).
weather(wind_speed,51,1,70).
weather(ghi,51,1,0).
night(51,1).
pred(wind,51,2,78108).
pred(solar,51,2,0).
pred(load,51,2,767662).
pred(price,51,2,17184).
weather(wind_speed,51,2,143).
weather(ghi,51,2,0).
pred(wind,51,3,76556).
pred(solar,51,3,0).
pred(load,51,3,808876).
pred(price,51,3,17803).
weather(wind_speed,51,3,208).
weather(ghi,51,3,0).
pred(wind,51,4,72100).
pred(solar,51,4,0).
pred(load,51,4,842776).
pred(price,51,4,18297).
weather(wind_speed,51,4,286).
weather(ghi,51,4,0).
pred(wind,51,5,65075).
pred(solar,51,5,0).
pred(load,51,5,846745).
pred(price,51,5,18369).
weather(wind_speed,51,5,318).
weather(ghi,51,5,1600).
pred(wind,51,6,70598).
pred(solar,51,6,0).
pred(load,51,6,843690).
pred(price,51,6,18240).
weather(wind_speed,51,6,362).
weather(ghi,51,6,5400).
pred(wind,51,7,74297).
pred(solar,51,7,273).
pred(load,51,7,831932).
pred(price,51,7,17910).
weather(wind_speed,51,7,367).
weather(ghi,51,7,6800).
pred(wind,51,8,79874).
pred(solar,51,8,9303).
pred(load,51,8,827850).
pred(price,51,8,17654).
weather(wind_speed,51,8,438).
weather(ghi,51,8,9500).
pred(wind,51,9,80954).
pred(solar,51,9,14380).
pred(load,51,9,831128).
pred(price,51,9,17514).
weather(wind_speed,51,9,437).
weather(ghi,51,9,8800).
pred(wind,51,10,75569).
pred(solar,51,10,15095).
pred(load,51,10,822741).
pred(price,51,10,17394).
weather(wind_speed,51,10,459).
weather(ghi,51,10,7300).
pred(wind,51,11,71603).
pred(solar,51,11,12281).
pred(load,51,11,831421).
pred(price,51,11,17409).
weather(wind_speed,51,11,449).
weather(ghi,51,11,4200).
pred(wind,51,12,75947).
pred(solar,51,12,8511).
pred(load,51,12,852324).
pred(price,51,12,17646).
weather(wind_speed,51,12,367).
weather(ghi,51,12,2100).
sample(52).
cap(wind,52,350000).
cap(solar,52,250000).
pred(wind,52,1,62563).
pred(solar,52,1,0).
pred(load,52,1,739269).
pred(price,52,1,18640).
weather(wind_speed,52,1,143).
weather(ghi,52,1,0).
pred(wind,52,2,64843).
pred(solar,52,2,0).
pred(load,52,2,751504).
pred(price,52,2,18706).
weather(wind_speed,52,2,208).
weather(ghi,52,2,0).
pred(wind,52,3,76436).
pred(solar,52,3,0).
pred(load,52,3,755875).
pred(price,52,3,18905).
weather(wind_speed,52,3,286).
weather(ghi,52,3,0).
pred(wind,52,4,82147).
pred(solar,52,4,0).
pred(load,52,4,751375).
pred(price,52,4,18813).
weather(wind_speed,52,4,318).
weather(ghi,52,4,1600).
pred(wind,52,5,77293).
pred(solar,52,5,0).
pred(load,52,5,736072).
pred(price,52,5,18503).
weather(wind_speed,52,5,362).
weather(ghi,52,5,5400).
pred(wind,52,6,77216).
pred(solar,52,6,1338).
pred(load,52,6,724770).
pred(price,52,6,18273).
weather(wind_speed,52,6,367).
weather(ghi,52,6,6800).
pred(wind,52,7,75820).
pred(solar,52,7,6249).
pred(load,52,7,712991).
pred(price,52,7,17979).
weather(wind_speed,52,7,438).
weather(ghi,52,7,9500).
pred(wind,52,8,77514).
pred(solar,52,8,7970).
pred(load,52,8,710019).
pred(price,52,8,17769).
weather(wind_speed,52,8,437).
weather(ghi,52,8,8800).
pred(wind,52,9,77619).
pred(solar,52,9,8597).
pred(load,52,9,717697).
pred(price,52,9,17624).
weather(wind_speed,52,9,459).
weather(ghi,52,9,7300).
pred(wind,52,10,74806).
pred(solar,52,10,9107).
pred(load,52,10,721083).
pred(price,52,10,17625).
weather(wind_speed,52,10,449).
weather(ghi,52,10,4200).
pred(wind,52,11,74796).
pred(solar,52,11,8614).
pred(load,52,11,731931).
pred(price,52,11,17970).
weather(wind_speed,52,11,367).
weather(ghi,52,11,2100).
pred(wind,52,12,77601).
pred(solar,52,12,11413).
pred(load,52,12,748890).
pred(price,52,12,18372).
weather(wind_speed,52,12,304).
weather(ghi,52,12,400).
sample(53).
cap(wind,53,350000).
cap(solar,53,250000).
pred(wind,53,1,48386).
pred(solar,53,1,0).
pred(load,53,1,779157).
pred(price,53,1,20944).
weather(wind_speed,53,1,208).
weather(ghi,53,1,0).
pred(wind,53,2,42462).
pred(solar,53,2,0).
pred(load,53,2,808733).
pred(price,53,2,20530).
weather(wind_speed,53,2,286).
weather(ghi,53,2,0).
pred(wind,53,3,56491).
pred(solar,53,3,0).
pred(load,53,3,829391).
pred(price,53,3,20388).
weather(wind_speed,53,3,318).
weather(ghi,53,3,1600).
pred(wind,53,4,67873).
pred(solar,53,4,861).
pred(load,53,4,833414).
pred(price,53,4,20216).
weather(wind_speed,53,4,362).
weather(ghi,53,4,5400).
pred(wind,53,5,74677).
pred(solar,53,5,8535).
pred(load,53,5,823791).
pred(price,53,5,19854).
weather(wind_speed,53,5,367).
weather(ghi,53,5,6800).
pred(wind,53,6,85838).
pred(solar,53,6,18138).
pred(load,53,6,803570).
pred(price,53,6,19520).
weather(wind_speed,53,6,438).
weather(ghi,53,6,9500).
pred(wind,53,7,96204).
pred(solar,53,7,25320).
pred(load,53,7,782322).
pred(price,53,7,19253).
weather(wind_speed,53,7,437).
weather(ghi,53,7,8800).
pred(wind,53,8,104146).
pred(solar,53,8,28439).
pred(load,53,8,761729).
pred(price,53,8,19099).
weather(wind_speed,53,8,459).
weather(ghi,53,8,7300).
pred(wind,53,9,111775).
pred(solar,53,9,29117).
pred(load,53,9,760866).
pred(price,53,9,19119).
weather(wind_speed,53,9,449).
weather(ghi,53,9,4200).
pred(wind,53,10,117022).
pred(solar,53,10,27590).
pred(load,53,10,766086).
pred(price,53,10,19005).
weather(wind_speed,53,10,367).
weather(ghi,53,10,2100).
pred(wind,53,11,127666).
pred(solar,53,11,23753).
pred(load,53,11,773111).
pred(price,53,11,19085).
weather(wind_speed,53,11,304).
weather(ghi,53,11,400).
pred(wind,53,12,133724).
pred(solar,53,12,20999).
pred(load,53,12,775422).
pred(price,53,12,19140).
weather(wind_speed,53,12,302).
weather(ghi,53,12,0).
sample(54).
cap(wind,54,350000).
cap(solar,54,250000).
pred(wind,54,1,66545).
pred(solar,54,1,2074).
pred(load,54,1,801219).
pred(price,54,1,25015).
weather(wind_speed,54,1,286).
weather(ghi,54,1,0).
pred(wind,54,2,74380).
pred(solar,54,2,2317).
pred(load,54,2,805392).
pred(price,54,2,25036).
weather(wind_speed,54,2,318).
weather(ghi,54,2,1600).
pred(wind,54,3,77865).
pred(solar,54,3,240).
pred(load,54,3,792099).
pred(price,54,3,25028).
weather(wind_speed,54,3,362).
weather(ghi,54,3,5400).
pred(wind,54,4,84768).
pred(solar,54,4,0).
pred(load,54,4,788717).
pred(price,54,4,24827).
weather(wind_speed,54,4,367).
weather(ghi,54,4,6800).
pred(wind,54,5,94684).
pred(solar,54,5,0).
pred(load,54,5,805146).
pred(price,54,5,24589).
weather(wind_speed,54,5,438).
weather(ghi,54,5,9500).
pred(wind,54,6,99304).
pred(solar,54,6,5318).
pred(load,54,6,816588).
pred(price,54,6,24396).
weather(wind_speed,54,6,437).
weather(ghi,54,6,8800).
pred(wind,54,7,102764).
pred(solar,54,7,13737).
pred(load,54,7,807587).
pred(price,54,7,24254).
weather(wind_speed,54,7,459).
weather(ghi,54,7,7300).
pred(wind,54,8,107443).
pred(solar,54,8,20198).
pred(load,54,8,795464).
pred(price,54,8,24097).
weather(wind_speed,54,8,449).
weather(ghi,54,8,4200).
pred(wind,54,9,114092).
pred(solar,54,9,24185).
pred(load,54,9,782430).
pred(price,54,9,23956).
weather(wind_speed,54,9,367).
weather(ghi,54,9,2100).
pred(wind,54,10,115590).
pred(solar,54,10,26076).
pred(load,54,10,782565).
pred(price,54,10,23789).
weather(wind_speed,54,10,304).
weather(ghi,54,10,400).
pred(wind,54,11,111717).
pred(solar,54,11,27306).
pred(load,54,11,782947).
pred(price,54,11,23606).
weather(wind_speed,54,11,302).
weather(ghi,54,11,0).
pred(wind,54,12,120900).
pred(solar,54,12,29267).
pred(load,54,12,776888).
pred(price,54,12,23566).
weather(wind_speed,54,12,309).
weather(ghi,54,12,0).
sample(55).
cap(wind,55,350000).
cap(solar,55,250000).
pred(wind,55,1,71188).
pred(solar,55,1,1877).
pred(load,55,1,846961).
pred(price,55,1,37548).
weather(wind_speed,55,1,318).
weather(ghi,55,1,1600).
pred(wind,55,2,68692).
pred(solar,55,2,1912).
pred(load,55,2,857277).
pred(price,55,2,37448).
weather(wind_speed,55,2,362).
weather(ghi,55,2,5400).
pred(wind,55,3,60904).
pred(solar,55,3,936).
pred(load,55,3,858349).
pred(price,55,3,37382).
weather(wind_speed,55,3,367).
weather(ghi,55,3,6800).
pred(wind,55,4,55906).
pred(solar,55,4,1769).
pred(load,55,4,860698).
pred(price,55,4,37127).
weather(wind_speed,55,4,438).
weather(ghi,55,4,9500).
pred(wind,55,5,53998).
pred(solar,55,5,4581).
pred(load,55,5,867840).
pred(price,55,5,36617).
weather(wind_speed,55,5,437).
weather(ghi,55,5,8800).
pred(wind,55,6,49506).
pred(solar,55,6,9724).
pred(load,55,6,865274).
pred(price,55,6,36234).
weather(wind_speed,55,6,459).
weather(ghi,55,6,7300).
pred(wind,55,7,47770).
pred(solar,55,7,15226).
pred(load,55,7,852154).
pred(price,55,7,35942).
weather(wind_speed,55,7,449).
weather(ghi,55,7,4200).
pred(wind,55,8,49891).
pred(solar,55,8,17935).
pred(load,55,8,845187).
pred(price,55,8,35732).
weather(wind_speed,55,8,367).
weather(ghi,55,8,2100).
pred(wind,55,9,54942).
pred(solar,55,9,19202).
pred(load,55,9,826563).
pred(price,55,9,35441).
weather(wind_speed,55,9,304).
weather(ghi,55,9,400).
pred(wind,55,10,55648).
pred(solar,55,10,19254).
pred(load,55,10,808804).
pred(price,55,10,35102).
weather(wind_speed,55,10,302).
weather(ghi,55,10,0).
pred(wind,55,11,51703).
pred(solar,55,11,18948).
pred(load,55,11,798694).
pred(price,55,11,34654).
weather(wind_speed,55,11,309).
weather(ghi,55,11,0).
pred(wind,55,12,60212).
pred(solar,55,12,19424).
pred(load,55,12,794401).
pred(price,55,12,34446).
weather(wind_speed,55,12,292).
weather(ghi,55,12,0).
sample(56).
cap(wind,56,350000).
cap(solar,56,250000).
pred(wind,56,1,99493).
pred(solar,56,1,10444).
pred(load,56,1,887996).
pred(price,56,1,32467).
weather(wind_speed,56,1,362).
weather(ghi,56,1,5400).
pred(wind,56,2,101701).
pred(solar,56,2,11612).
pred(load,56,2,876504).
pred(price,56,2,32009).
weather(wind_speed,56,2,367).
weather(ghi,56,2,6800).
pred(wind,56,3,101916).
pred(solar,56,3,11259).
pred(load,56,3,846792).
pred(price,56,3,31792).
weather(wind_speed,56,3,438).
weather(ghi,56,3,9500).
pred(wind,56,4,104594).
pred(solar,56,4,11766).
pred(load,56,4,827226).
pred(price,56,4,31517).
weather(wind_speed,56,4,437).
weather(ghi,56,4,8800).
pred(wind,56,5,112029).
pred(solar,56,5,13661).
pred(load,56,5,826880).
pred(price,56,5,31323).
weather(wind_speed,56,5,459).
weather(ghi,56,5,7300).
pred(wind,56,6,119462).
pred(solar,56,6,17182).
pred(load,56,6,830170).
pred(price,56,6,31161).
weather(wind_speed,56,6,449).
weather(ghi,56,6,4200).
pred(wind,56,7,124935).
pred(solar,56,7,22592).
pred(load,56,7,820397).
pred(price,56,7,31133).
weather(wind_speed,56,7,367).
weather(ghi,56,7,2100).
pred(wind,56,8,124909).
pred(solar,56,8,26698).
pred(load,56,8,818572).
pred(price,56,8,31022).
weather(wind_speed,56,8,304).
weather(ghi,56,8,400).
pred(wind,56,9,126204).
pred(solar,56,9,27290).
pred(load,56,9,830748).
pred(price,56,9,30808).
weather(wind_speed,56,9,302).
weather(ghi,56,9,0).
pred(wind,56,10,126797).
pred(solar,56,10,25052).
pred(load,56,10,848192).
pred(price,56,10,30624).
weather(wind_speed,56,10,309).
weather(ghi,56,10,0).
pred(wind,56,11,124959).
pred(solar,56,11,22312).
pred(load,56,11,856244).
pred(price,56,11,30488).
weather(wind_speed,56,11,292).
weather(ghi,56,11,0).
pred(wind,56,12,127847).
pred(solar,56,12,19624).
pred(load,56,12,852045).
pred(price,56,12,30180).
weather(wind_speed,56,12,290).
weather(ghi,56,12,0).
sample(57).
cap(wind,57,350000).
cap(solar,57,250000).
pred(wind,57,1,87232).
pred(solar,57,1,2978).
pred(load,57,1,844958).
pred(price,57,1,30502).
weather(wind_speed,57,1,367).
weather(ghi,57,1,6800).
pred(wind,57,2,99799).
pred(solar,57,2,5777).
pred(load,57,2,853884).
pred(price,57,2,29915).
weather(wind_speed,57,2,438).
weather(ghi,57,2,9500).
pred(wind,57,3,107035).
pred(solar,57,3,8618).
pred(load,57,3,860663).
pred(price,57,3,29569).
weather(wind_speed,57,3,437).
weather(ghi,57,3,8800).
pred(wind,57,4,109722).
pred(solar,57,4,11422).
pred(load,57,4,855612).
pred(price,57,4,29323).
weather(wind_speed,57,4,459).
weather(ghi,57,4,7300).
pred(wind,57,5,112305).
pred(solar,57,5,13406).
pred(load,57,5,846428).
pred(price,57,5,29156).
weather(wind_speed,57,5,449).
weather(ghi,57,5,4200).
pred(wind,57,6,111344).
pred(solar,57,6,15813).
pred(load,57,6,842936).
pred(price,57,6,29080).
weather(wind_speed,57,6,367).
weather(ghi,57,6,2100).
pred(wind,57,7,108969).
pred(solar,57,7,19260).
pred(load,57,7,845368).
pred(price,57,7,28855).
weather(wind_speed,57,7,304).
weather(ghi,57,7,400).
pred(wind,57,8,103423).
pred(solar,57,8,23783).
pred(load,57,8,851876).
pred(price,57,8,28469).
weather(wind_speed,57,8,302).
weather(ghi,57,8,0).
pred(wind,57,9,97248).
pred(solar,57,9,28414).
pred(load,57,9,855685).
pred(price,57,9,28024).
weather(wind_speed,57,9,309).
weather(ghi,57,9,0).
pred(wind,57,10,89478).
pred(solar,57,10,31363).
pred(load,57,10,857266).
pred(price,57,10,27689).
weather(wind_speed,57,10,292).
weather(ghi,57,10,0).
pred(wind,57,11,84344).
pred(solar,57,11,31454).
pred(load,57,11,840700).
pred(price,57,11,27415).
weather(wind_speed,57,11,290).
weather(ghi,57,11,0).
pred(wind,57,12,81067).
pred(solar,57,12,28759).
pred(load,57,12,817220).
pred(price,57,12,27059).
weather(wind_speed,57,12,306).
weather(ghi,57,12,0).
night(57,12).
sample(58).
cap(wind,58,350000).
cap(solar,58,250000).
pred(wind,58,1,96102).
pred(solar,58,1,208).
pred(load,58,1,834889).
pred(price,58,1,29712).
weather(wind_speed,58,1,438).
weather(ghi,58,1,9500).
pred(wind,58,2,114112).
pred(solar,58,2,0).
pred(load,58,2,847638).
pred(price,58,2,29275).
weather(wind_speed,58,2,437).
weather(ghi,58,2,8800).
pred(wind,58,3,123671).
pred(solar,58,3,0).
pred(load,58,3,860623).
pred(price,58,3,29003).
weather(wind_speed,58,3,459).
weather(ghi,58,3,7300).
pred(wind,58,4,124115).
pred(solar,58,4,0).
pred(load,58,4,863231).
pred(price,58,4,28856).
weather(wind_speed,58,4,449).
weather(ghi,58,4,4200).
pred(wind,58,5,124987).
pred(solar,58,5,2966).
pred(load,58,5,855387).
pred(price,58,5,28698).
weather(wind_speed,58,5,367).
weather(ghi,58,5,2100).
pred(wind,58,6,124575).
pred(solar,58,6,7734).
pred(load,58,6,849898).
pred(price,58,6,28494).
weather(wind_speed,58,6,304).
weather(ghi,58,6,400).
pred(wind,58,7,121126).
pred(solar,58,7,13569).
pred(load,58,7,846762).
pred(price,58,7,27987).
weather(wind_speed,58,7,302).
weather(ghi,58,7,0).
pred(wind,58,8,115253).
pred(solar,58,8,19305).
pred(load,58,8,845222).
pred(price,58,8,27295).
weather(wind_speed,58,8,309).
weather(ghi,58,8,0).
pred(wind,58,9,108290).
pred(solar,58,9,24692).
pred(load,58,9,842573).
pred(price,58,9,26797).
weather(wind_speed,58,9,292).
weather(ghi,58,9,0).
pred(wind,58,10,97437).
pred(solar,58,10,28281).
pred(load,58,10,838372).
pred(price,58,10,26532).
weather(wind_speed,58,10,290).
weather(ghi,58,10,0).
pred(wind,58,11,91547).
pred(solar,58,11,28363).
pred(load,58,11,823313).
pred(price,58,11,26368).
weather(wind_speed,58,11,306).
weather(ghi,58,11,0).
night(58,11).
pred(wind,58,12,86532).
pred(solar,58,12,25559).
pred(load,58,12,808563).
pred(price,58,12,26042).
weather(wind_speed,58,12,290).
weather(ghi,58,12,0).
night(58,12).
sample(59).
cap(wind,59,350000).
cap(solar,59,250000).
pred(wind,59,1,98103).
pred(solar,59,1,832).
pred(load,59,1,836097).
pred(price,59,1,30757).
weather(wind_speed,59,1,437).
weather(ghi,59,1,8800).
pred(wind,59,2,117600).
pred(solar,59,2,0).
pred(load,59,2,844491).
pred(price,59,2,30352).
weather(wind_speed,59,2,459).
weather(ghi,59,2,7300).
pred(wind,59,3,128967).
pred(solar,59,3,0).
pred(load,59,3,854628).
pred(price,59,3,30035).
weather(wind_speed,59,3,449).
weather(ghi,59,3,4200).
pred(wind,59,4,128961).
pred(solar,59,4,0).
pred(load,59,4,860396).
pred(price,59,4,29779).
weather(wind_speed,59,4,367).
weather(ghi,59,4,2100).
pred(wind,59,5,130328).
pred(solar,59,5,0).
pred(load,59,5,856449).
pred(price,59,5,29543).
weather(wind_speed,59,5,304).
weather(ghi,59,5,400).
pred(wind,59,6,132382).
pred(solar,59,6,2961).
pred(load,59,6,854428).
pred(price,59,6,29315).
weather(wind_speed,59,6,302).
weather(ghi,59,6,0).
pred(wind,59,7,129001).
pred(solar,59,7,9022).
pred(load,59,7,853607).
pred(price,59,7,28767).
weather(wind_speed,59,7,309).
weather(ghi,59,7,0).
pred(wind,59,8,121703).
pred(solar,59,8,14919).
pred(load,59,8,851628).
pred(price,59,8,27992).
weather(wind_speed,59,8,292).
weather(ghi,59,8,0).
pred(wind,59,9,115323).
pred(solar,59,9,20802).
pred(load,59,9,844087).
pred(price,59,9,27448).
weather(wind_speed,59,9,290).
weather(ghi,59,9,0).
pred(wind,59,10,105879).
pred(solar,59,10,24761).
pred(load,59,10,834537).
pred(price,59,10,27194).
weather(wind_speed,59,10,306).
weather(ghi,59,10,0).
night(59,10).
pred(wind,59,11,99711).
pred(solar,59,11,25075).
pred(load,59,11,819509).
pred(price,59,11,27104).
weather(wind_speed,59,11,290).
weather(ghi,59,11,0).
night(59,11).
pred(wind,59,12,92731).
pred(solar,59,12,22999).
pred(load,59,12,805325).
pred(price,59,12,26868).
weather(wind_speed,59,12,272).
weather(ghi,59,12,0).
night(59,12).
sample(60).
cap(wind,60,350000).
cap(solar,60,250000).
pred(wind,60,1,99550).
pred(solar,60,1,280).
pred(load,60,1,832967).
pred(price,60,1,32266).
weather(wind_speed,60,1,459).
weather(ghi,60,1,7300).
pred(wind,60,2,117778).
pred(solar,60,2,0).
pred(load,60,2,842859).
pred(price,60,2,31913).
weather(wind_speed,60,2,449).
weather(ghi,60,2,4200).
pred(wind,60,3,128955).
pred(solar,60,3,0).
pred(load,60,3,855206).
pred(price,60,3,31571).
weather(wind_speed,60,3,367).
weather(ghi,60,3,2100).
pred(wind,60,4,130599).
pred(solar,60,4,0).
pred(load,60,4,861424).
pred(price,60,4,31213).
weather(wind_speed,60,4,304).
weather(ghi,60,4,400).
pred(wind,60,5,132532).
pred(solar,60,5,0).
pred(load,60,5,855103).
pred(price,60,5,30860).
weather(wind_speed,60,5,302).
weather(ghi,60,5,0).
pred(wind,60,6,134708).
pred(solar,60,6,800).
pred(load,60,6,849490).
pred(price,60,6,30582).
weather(wind_speed,60,6,309).
weather(ghi,60,6,0).
pred(wind,60,7,130761).
pred(solar,60,7,6754).
pred(load,60,7,844563).
pred(price,60,7,30023).
weather(wind_speed,60,7,292).
weather(ghi,60,7,0).
pred(wind,60,8,121868).
pred(solar,60,8,12259).
pred(load,60,8,839502).
pred(price,60,8,29251).
weather(wind_speed,60,8,290).
weather(ghi,60,8,0).
pred(wind,60,9,113841).
pred(solar,60,9,18205).
pred(load,60,9,829632).
pred(price,60,9,28681).
weather(wind_speed,60,9,306).
weather(ghi,60,9,0).
night(60,9).
pred(wind,60,10,104560).
pred(solar,60,10,23101).
pred(load,60,10,819829).
pred(price,60,10,28431).
weather(wind_speed,60,10,290).
weather(ghi,60,10,0).
night(60,10).
pred(wind,60,11,99133).
pred(solar,60,11,25056).
pred(load,60,11,806924).
pred(price,60,11,28343).
weather(wind_speed,60,11,272).
weather(ghi,60,11,0).
night(60,11).
pred(wind,60,12,93348).
pred(solar,60,12,24621).
pred(load,60,12,797085).
pred(price,60,12,28125).
weather(wind_speed,60,12,198).
weather(ghi,60,12,0).
night(60,12).
sample(61).
cap(wind,61,350000).
cap(solar,61,250000).
pred(wind,61,1,101201).
pred(solar,61,1,0).
pred(load,61,1,823576).
pred(price,61,1,28024).
weather(wind_speed,61,1,449).
weather(ghi,61,1,4200).
pred(wind,61,2,116752).
pred(solar,61,2,0).
pred(load,61,2,837562).
pred(price,61,2,27804).
weather(wind_speed,61,2,367).
weather(ghi,61,2,2100).
pred(wind,61,3,127711).
pred(solar,61,3,0).
pred(load,61,3,853530).
pred(price,61,3,27654).
weather(wind_speed,61,3,304).
weather(ghi,61,3,400).
pred(wind,61,4,131031).
pred(solar,61,4,0).
pred(load,61,4,856539).
pred(price,61,4,27406).
weather(wind_speed,61,4,302).
weather(ghi,61,4,0).
pred(wind,61,5,135322).
pred(solar,61,5,0).
pred(load,61,5,844917).
pred(price,61,5,27057).
weather(wind_speed,61,5,309).
weather(ghi,61,5,0).
pred(wind,61,6,139382).
pred(solar,61,6,4414).
pred(load,61,6,832199).
pred(price,61,6,26630).
weather(wind_speed,61,6,292).
weather(ghi,61,6,0).
pred(wind,61,7,136625).
pred(solar,61,7,10384).
pred(load,61,7,819893).
pred(price,61,7,25964).
weather(wind_speed,61,7,290).
weather(ghi,61,7,0).
pred(wind,61,8,128424).
pred(solar,61,8,15910).
pred(load,61,8,809935).
pred(price,61,8,25222).
weather(wind_speed,61,8,306).
weather(ghi,61,8,0).
night(61,8).
pred(wind,61,9,117912).
pred(solar,61,9,21576).
pred(load,61,9,797186).
pred(price,61,9,24745).
weather(wind_speed,61,9,290).
weather(ghi,61,9,0).
night(61,9).
pred(wind,61,10,107099).
pred(solar,61,10,25761).
pred(load,61,10,787285).
pred(price,61,10,24473).
weather(wind_speed,61,10,272).
weather(ghi,61,10,0).
night(61,10).
pred(wind,61,11,103723).
pred(solar,61,11,27098).
pred(load,61,11,776204).
pred(price,61,11,24305).
weather(wind_speed,61,11,198).
weather(ghi,61,11,0).
night(61,11).
pred(wind,61,12,100452).
pred(solar,61,12,26069).
pred(load,61,12,773342).
pred(price,61,12,24058).
weather(wind_speed,61,12,225).
weather(ghi,61,12,0).
night(61,12).
sample(62).
cap(wind,62,350000).
cap(solar,62,250000).
pred(wind,62,1,106703).
pred(solar,62,1,4169).
pred(load,62,1,886817).
pred(price,62,1,30793).
weather(wind_speed,62,1,367).
weather(ghi,62,1,2100).
pred(wind,62,2,106873).
pred(solar,62,2,0).
pred(load,62,2,894606).
pred(price,62,2,30485).
weather(wind_speed,62,2,304).
weather(ghi,62,2,400).
pred(wind,62,3,108409).
pred(solar,62,3,0).
pred(load,62,3,888543).
pred(price,62,3,30267).
weather(wind_speed,62,3,302).
weather(ghi,62,3,0).
pred(wind,62,4,113035).
pred(solar,62,4,470).
pred(load,62,4,873096).
pred(price,62,4,29929).
weather(wind_speed,62,4,309).
weather(ghi,62,4,0).
pred(wind,62,5,119952).
pred(solar,62,5,5799).
pred(load,62,5,850297).
pred(price,62,5,29479).
weather(wind_speed,62,5,292).
weather(ghi,62,5,0).
pred(wind,62,6,126905).
pred(solar,62,6,13893).
pred(load,62,6,817031).
pred(price,62,6,28879).
weather(wind_speed,62,6,290).
weather(ghi,62,6,0).
pred(wind,62,7,125787).
pred(solar,62,7,22001).
pred(load,62,7,778777).
pred(price,62,7,28479).
weather(wind_speed,62,7,306).
weather(ghi,62,7,0).
night(62,7).
pred(wind,62,8,117491).
pred(solar,62,8,27866).
pred(load,62,8,754191).
pred(price,62,8,28008).
weather(wind_speed,62,8,290).
weather(ghi,62,8,0).
night(62,8).
pred(wind,62,9,108545).
pred(solar,62,9,30620).
pred(load,62,9,749440).
pred(price,62,9,27652).
weather(wind_speed,62,9,272).
weather(ghi,62,9,0).
night(62,9).
pred(wind,62,10,105392).
pred(solar,62,10,29879).
pred(load,62,10,755315).
pred(price,62,10,27453).
weather(wind_speed,62,10,198).
weather(ghi,62,10,0).
night(62,10).
pred(wind,62,11,110017).
pred(solar,62,11,26535).
pred(load,62,11,763354).
pred(price,62,11,27438).
weather(wind_speed,62,11,225).
weather(ghi,62,11,0).
night(62,11).
pred(wind,62,12,121048).
pred(solar,62,12,22646).
pred(load,62,12,776331).
pred(price,62,12,27323).
weather(wind_speed,62,12,200).
weather(ghi,62,12,0).
night(62,12).
sample(63).
cap(wind,63,350000).
cap(solar,63,250000).
pred(wind,63,1,87367).
pred(solar,63,1,0).
pred(load,63,1,846104).
pred(price,63,1,30994).
weather(wind_speed,63,1,304).
weather(ghi,63,1,400).
pred(wind,63,2,92469).
pred(solar,63,2,0).
pred(load,63,2,870828).
pred(price,63,2,30613).
weather(wind_speed,63,2,302).
weather(ghi,63,2,0).
pred(wind,63,3,111177).
pred(solar,63,3,0).
pred(load,63,3,872079).
pred(price,63,3,30003).
weather(wind_speed,63,3,309).
weather(ghi,63,3,0).
pred(wind,63,4,124822).
pred(solar,63,4,0).
pred(load,63,4,851078).
pred(price,63,4,29411).
weather(wind_speed,63,4,292).
weather(ghi,63,4,0).
pred(wind,63,5,126371).
pred(solar,63,5,4436).
pred(load,63,5,820000).
pred(price,63,5,28728).
weather(wind_speed,63,5,290).
weather(ghi,63,5,0).
pred(wind,63,6,129241).
pred(solar,63,6,11212).
pred(load,63,6,771271).
pred(price,63,6,28184).
weather(wind_speed,63,6,306).
weather(ghi,63,6,0).
night(63,6).
pred(wind,63,7,130997).
pred(solar,63,7,16496).
pred(load,63,7,718558).
pred(price,63,7,27849).
weather(wind_speed,63,7,290).
weather(ghi,63,7,0).
night(63,7).
pred(wind,63,8,133864).
pred(solar,63,8,18945).
pred(load,63,8,681929).
pred(price,63,8,27546).
weather(wind_speed,63,8,272).
weather(ghi,63,8,0).
night(63,8).
pred(wind,63,9,135104).
pred(solar,63,9,19277).
pred(load,63,9,676048).
pred(price,63,9,27494).
weather(wind_speed,63,9,198).
weather(ghi,63,9,0).
night(63,9).
pred(wind,63,10,136908).
pred(solar,63,10,17343).
pred(load,63,10,688504).
pred(price,63,10,27371).
weather(wind_speed,63,10,225).
weather(ghi,63,10,0).
night(63,10).
pred(wind,63,11,137489).
pred(solar,63,11,13146).
pred(load,63,11,714513).
pred(price,63,11,27367).
weather(wind_speed,63,11,200).
weather(ghi,63,11,0).
night(63,11).
pred(wind,63,12,139610).
pred(solar,63,12,11172).
pred(load,63,12,743147).
pred(price,63,12,27640).
weather(wind_speed,63,12,235).
weather(ghi,63,12,0).
night(63,12).
sample(64).
cap(wind,64,350000).
cap(solar,64,250000).
pred(wind,64,1,140463).
pred(solar,64,1,0).
pred(load,64,1,845287).
pred(price,64,1,33025).
weather(wind_speed,64,1,302).
weather(ghi,64,1,0).
pred(wind,64,2,144967).
pred(solar,64,2,0).
pred(load,64,2,859264).
pred(price,64,2,32525).
weather(wind_speed,64,2,309).
weather(ghi,64,2,0).
pred(wind,64,3,155828).
pred(solar,64,3,0).
pred(load,64,3,861472).
pred(price,64,3,31895).
weather(wind_speed,64,3,292).
weather(ghi,64,3,0).
pred(wind,64,4,155846).
pred(solar,64,4,0).
pred(load,64,4,847091).
pred(price,64,4,31255).
weather(wind_speed,64,4,290).
weather(ghi,64,4,0).
pred(wind,64,5,147277).
pred(solar,64,5,0).
pred(load,64,5,822763).
pred(price,64,5,30420).
weather(wind_speed,64,5,306).
weather(ghi,64,5,0).
night(64,5).
pred(wind,64,6,141648).
pred(solar,64,6,0).
pred(load,64,6,796650).
pred(price,64,6,29668).
weather(wind_speed,64,6,290).
weather(ghi,64,6,0).
night(64,6).
pred(wind,64,7,133854).
pred(solar,64,7,670).
pred(load,64,7,760006).
pred(price,64,7,29221).
weather(wind_speed,64,7,272).
weather(ghi,64,7,0).
night(64,7).
pred(wind,64,8,129193).
pred(solar,64,8,3499).
pred(load,64,8,721848).
pred(price,64,8,28976).
weather(wind_speed,64,8,198).
weather(ghi,64,8,0).
night(64,8).
pred(wind,64,9,126728).
pred(solar,64,9,5020).
pred(load,64,9,692764).
pred(price,64,9,28930).
weather(wind_speed,64,9,225).
weather(ghi,64,9,0).
night(64,9).
pred(wind,64,10,122306).
pred(solar,64,10,6150).
pred(load,64,10,684298).
pred(price,64,10,28907).
weather(wind_speed,64,10,200).
weather(ghi,64,10,0).
night(64,10).
pred(wind,64,11,122357).
pred(solar,64,11,7130).
pred(load,64,11,702872).
pred(price,64,11,29003).
weather(wind_speed,64,11,235).
weather(ghi,64,11,0).
night(64,11).
pred(wind,64,12,128367).
pred(solar,64,12,10075).
pred(load,64,12,729689).
pred(price,64,12,29333).
weather(wind_speed,64,12,252).
weather(ghi,64,12,0).
night(64,12).
sample(65).
cap(wind,65,350000).
cap(solar,65,250000).
pred(wind,65,1,158585).
pred(solar,65,1,0).
pred(load,65,1,850163).
pred(price,65,1,32394).
weather(wind_speed,65,1,309).
weather(ghi,65,1,0).
pred(wind,65,2,154283).
pred(solar,65,2,0).
pred(load,65,2,850443).
pred(price,65,2,31703).
weather(wind_speed,65,2,292).
weather(ghi,65,2,0).
pred(wind,65,3,153408).
pred(solar,65,3,0).
pred(load,65,3,841979).
pred(price,65,3,30883).
weather(wind_speed,65,3,290).
weather(ghi,65,3,0).
pred(wind,65,4,145545).
pred(solar,65,4,0).
pred(load,65,4,826265).
pred(price,65,4,30275).
weather(wind_speed,65,4,306).
weather(ghi,65,4,0).
night(65,4).
pred(wind,65,5,139525).
pred(solar,65,5,0).
pred(load,65,5,802983).
pred(price,65,5,29708).
weather(wind_speed,65,5,290).
weather(ghi,65,5,0).
night(65,5).
pred(wind,65,6,136242).
pred(solar,65,6,0).
pred(load,65,6,778925).
pred(price,65,6,29042).
weather(wind_speed,65,6,272).
weather(ghi,65,6,0).
night(65,6).
pred(wind,65,7,131701).
pred(solar,65,7,0).
pred(load,65,7,753973).
pred(price,65,7,28686).
weather(wind_speed,65,7,198).
weather(ghi,65,7,0).
night(65,7).
pred(wind,65,8,130007).
pred(solar,65,8,0).
pred(load,65,8,730781).
pred(price,65,8,28503).
weather(wind_speed,65,8,225).
weather(ghi,65,8,0).
night(65,8).
pred(wind,65,9,125337).
pred(solar,65,9,238).
pred(load,65,9,713562).
pred(price,65,9,28531).
weather(wind_speed,65,9,200).
weather(ghi,65,9,0).
night(65,9).
pred(wind,65,10,118390).
pred(solar,65,10,4195).
pred(load,65,10,707474).
pred(price,65,10,28504).
weather(wind_speed,65,10,235).
weather(ghi,65,10,0).
night(65,10).
pred(wind,65,11,114388).
pred(solar,65,11,7573).
pred(load,65,11,723615).
pred(price,65,11,28685).
weather(wind_speed,65,11,252).
weather(ghi,65,11,0).
night(65,11).
pred(wind,65,12,116701).
pred(solar,65,12,12231).
pred(load,65,12,746691).
pred(price,65,12,29216).
weather(wind_speed,65,12,206).
weather(ghi,65,12,0).
sample(66).
cap(wind,66,350000).
cap(solar,66,250000).
pred(wind,66,1,171079).
pred(solar,66,1,0).
pred(load,66,1,838087).
pred(price,66,1,32293).
weather(wind_speed,66,1,292).
weather(ghi,66,1,0).
pred(wind,66,2,164557).
pred(solar,66,2,0).
pred(load,66,2,842454).
pred(price,66,2,31737).
weather(wind_speed,66,2,290).
weather(ghi,66,2,0).
pred(wind,66,3,160826).
pred(solar,66,3,0).
pred(load,66,3,838300).
pred(price,66,3,31148).
weather(wind_speed,66,3,306).
weather(ghi,66,3,0).
night(66,3).
pred(wind,66,4,152587).
pred(solar,66,4,0).
pred(load,66,4,831056).
pred(price,66,4,30741).
weather(wind_speed,66,4,290).
weather(ghi,66,4,0).
night(66,4).
pred(wind,66,5,146741).
pred(solar,66,5,0).
pred(load,66,5,817241).
pred(price,66,5,30376).
weather(wind_speed,66,5,272).
weather(ghi,66,5,0).
night(66,5).
pred(wind,66,6,147821).
pred(solar,66,6,0).
pred(load,66,6,798415).
pred(price,66,6,29869).
weather(wind_speed,66,6,198).
weather(ghi,66,6,0).
night(66,6).
pred(wind,66,7,150377).
pred(solar,66,7,0).
pred(load,66,7,778297).
pred(price,66,7,29576).
weather(wind_speed,66,7,225).
weather(ghi,66,7,0).
night(66,7).
pred(wind,66,8,155464).
pred(solar,66,8,2671).
pred(load,66,8,761025).
pred(price,66,8,29397).
weather(wind_speed,66,8,200).
weather(ghi,66,8,0).
night(66,8).
pred(wind,66,9,154253).
pred(solar,66,9,6275).
pred(load,66,9,747629).
pred(price,66,9,29373).
weather(wind_speed,66,9,235).
weather(ghi,66,9,0).
night(66,9).
pred(wind,66,10,148125).
pred(solar,66,10,9233).
pred(load,66,10,740953).
pred(price,66,10,29247).
weather(wind_speed,66,10,252).
weather(ghi,66,10,0).
night(66,10).
pred(wind,66,11,144184).
pred(solar,66,11,11100).
pred(load,66,11,757874).
pred(price,66,11,29339).
weather(wind_speed,66,11,206).
weather(ghi,66,11,0).
pred(wind,66,12,143224).
pred(solar,66,12,14145).
pred(load,66,12,782856).
pred(price,66,12,29712).
weather(wind_speed,66,12,177).
weather(ghi,66,12,0).
sample(67).
cap(wind,67,350000).
cap(solar,67,250000).
pred(wind,67,1,174006).
pred(solar,67,1,0).
pred(load,67,1,812245).
pred(price,67,1,31989).
weather(wind_speed,67,1,290).
weather(ghi,67,1,0).
pred(wind,67,2,168242).
pred(solar,67,2,0).
pred(load,67,2,819137).
pred(price,67,2,31310).
weather(wind_speed,67,2,306).
weather(ghi,67,2,0).
night(67,2).
pred(wind,67,3,165503).
pred(solar,67,3,0).
pred(load,67,3,822860).
pred(price,67,3,30841).
weather(wind_speed,67,3,290).
weather(ghi,67,3,0).
night(67,3).
pred(wind,67,4,159410).
pred(solar,67,4,0).
pred(load,67,4,823406).
pred(price,67,4,30771).
weather(wind_speed,67,4,272).
weather(ghi,67,4,0).
night(67,4).
pred(wind,67,5,155300).
pred(solar,67,5,0).
pred(load,67,5,820398).
pred(price,67,5,30695).
weather(wind_speed,67,5,198).
weather(ghi,67,5,0).
night(67,5).
pred(wind,67,6,159536).
pred(solar,67,6,0).
pred(load,67,6,818031).
pred(price,67,6,30444).
weather(wind_speed,67,6,225).
weather(ghi,67,6,0).
night(67,6).
pred(wind,67,7,165311).
pred(solar,67,7,0).
pred(load,67,7,813956).
pred(price,67,7,30282).
weather(wind_speed,67,7,200).
weather(ghi,67,7,0).
night(67,7).
pred(wind,67,8,173720).
pred(solar,67,8,2666).
pred(load,67,8,809993).
pred(price,67,8,30164).
weather(wind_speed,67,8,235).
weather(ghi,67,8,0).
night(67,8).
pred(wind,67,9,174029).
pred(solar,67,9,8556).
pred(load,67,9,800521).
pred(price,67,9,30093).
weather(wind_speed,67,9,252).
weather(ghi,67,9,0).
night(67,9).
pred(wind,67,10,166733).
pred(solar,67,10,12098).
pred(load,67,10,791111).
pred(price,67,10,29878).
weather(wind_speed,67,10,206).
weather(ghi,67,10,0).
pred(wind,67,11,161834).
pred(solar,67,11,13151).
pred(load,67,11,801780).
pred(price,67,11,29856).
weather(wind_speed,67,11,177).
weather(ghi,67,11,0).
pred(wind,67,12,159356).
pred(solar,67,12,14018).
pred(load,67,12,823041).
pred(price,67,12,30114).
weather(wind_speed,67,12,234).
weather(ghi,67,12,0).
sample(68).
cap(wind,68,350000).
cap(solar,68,250000).
pred(wind,68,1,178385).
pred(solar,68,1,0).
pred(load,68,1,783827).
pred(price,68,1,28359).
weather(wind_speed,68,1,306).
weather(ghi,68,1,0).
night(68,1).
pred(wind,68,2,175212).
pred(solar,68,2,0).
pred(load,68,2,792969).
pred(price,68,2,27822).
weather(wind_speed,68,2,290).
weather(ghi,68,2,0).
night(68,2).
pred(wind,68,3,173995).
pred(solar,68,3,0).
pred(load,68,3,808648).
pred(price,68,3,27657).
weather(wind_speed,68,3,272).
weather(ghi,68,3,0).
night(68,3).
pred(wind,68,4,169957).
pred(solar,68,4,0).
pred(load,68,4,823811).
pred(price,68,4,27872).
weather(wind_speed,68,4,198).
weather(ghi,68,4,0).
night(68,4).
pred(wind,68,5,165889).
pred(solar,68,5,0).
pred(load,68,5,833020).
pred(price,68,5,28054).
weather(wind_speed,68,5,225).
weather(ghi,68,5,0).
night(68,5).
pred(wind,68,6,171387).
pred(solar,68,6,0).
pred(load,68,6,839870).
pred(price,68,6,28077).
weather(wind_speed,68,6,200).
weather(ghi,68,6,0).
night(68,6).
pred(wind,68,7,177445).
pred(solar,68,7,0).
pred(load,68,7,844651).
pred(price,68,7,27999).
weather(wind_speed,68,7,235).
weather(ghi,68,7,0).
night(68,7).
pred(wind,68,8,187401).
pred(solar,68,8,1004).
pred(load,68,8,849772).
pred(price,68,8,27804).
weather(wind_speed,68,8,252).
weather(ghi,68,8,0).
night(68,8).
pred(wind,68,9,189529).
pred(solar,68,9,8317).
pred(load,68,9,846221).
pred(price,68,9,27561).
weather(wind_speed,68,9,206).
weather(ghi,68,9,0).
pred(wind,68,10,184170).
pred(solar,68,10,12822).
pred(load,68,10,834111).
pred(price,68,10,27253).
weather(wind_speed,68,10,177).
weather(ghi,68,10,0).
pred(wind,68,11,177285).
pred(solar,68,11,13634).
pred(load,68,11,833628).
pred(price,68,11,27137).
weather(wind_speed,68,11,234).
weather(ghi,68,11,0).
pred(wind,68,12,172520).
pred(solar,68,12,12745).
pred(load,68,12,848607).
pred(price,68,12,27302).
weather(wind_speed,68,12,283).
weather(ghi,68,12,1300).
sample(69).
cap(wind,69,350000).
cap(solar,69,250000).
pred(wind,69,1,184842).
pred(solar,69,1,0).
pred(load,69,1,764933).
pred(price,69,1,24941).
weather(wind_speed,69,1,290).
weather(ghi,69,1,0).
night(69,1).
pred(wind,69,2,183766).
pred(solar,69,2,0).
pred(load,69,2,774003).
pred(price,69,2,24512).
weather(wind_speed,69,2,272).
weather(ghi,69,2,0).
night(69,2).
pred(wind,69,3,184295).
pred(solar,69,3,0).
pred(load,69,3,792614).
pred(price,69,3,24483).
weather(wind_speed,69,3,198).
weather(ghi,69,3,0).
night(69,3).
pred(wind,69,4,182203).
pred(solar,69,4,0).
pred(load,69,4,815077).
pred(price,69,4,24798).
weather(wind_speed,69,4,225).
weather(ghi,69,4,0).
night(69,4).
pred(wind,69,5,179968).
pred(solar,69,5,0).
pred(load,69,5,835269).
pred(price,69,5,25100).
weather(wind_speed,69,5,200).
weather(ghi,69,5,0).
night(69,5).
pred(wind,69,6,186274).
pred(solar,69,6,0).
pred(load,69,6,853602).
pred(price,69,6,25310).
weather(wind_speed,69,6,235).
weather(ghi,69,6,0).
night(69,6).
pred(wind,69,7,191827).
pred(solar,69,7,0).
pred(load,69,7,866431).
pred(price,69,7,25382).
weather(wind_speed,69,7,252).
weather(ghi,69,7,0).
night(69,7).
pred(wind,69,8,199956).
pred(solar,69,8,0).
pred(load,69,8,876298).
pred(price,69,8,25286).
weather(wind_speed,69,8,206).
weather(ghi,69,8,0).
pred(wind,69,9,200737).
pred(solar,69,9,5617).
pred(load,69,9,876133).
pred(price,69,9,25031).
weather(wind_speed,69,9,177).
weather(ghi,69,9,0).
pred(wind,69,10,194424).
pred(solar,69,10,10548).
pred(load,69,10,862694).
pred(price,69,10,24639).
weather(wind_speed,69,10,234).
weather(ghi,69,10,0).
pred(wind,69,11,185287).
pred(solar,69,11,12417).
pred(load,69,11,855678).
pred(price,69,11,24401).
weather(wind_speed,69,11,283).
weather(ghi,69,11,1300).
pred(wind,69,12,177803).
pred(solar,69,12,12015).
pred(load,69,12,867184).
pred(price,69,12,24478).
weather(wind_speed,69,12,254).
weather(ghi,69,12,4500).
sample(70).
cap(wind,70,350000).
cap(solar,70,250000).
pred(wind,70,1,188725).
pred(solar,70,1,1007).
pred(load,70,1,748490).
pred(price,70,1,23446).
weather(wind_speed,70,1,272).
weather(ghi,70,1,0).
night(70,1).
pred(wind,70,2,189333).
pred(solar,70,2,0).
pred(load,70,2,756367).
pred(price,70,2,23030).
weather(wind_speed,70,2,198).
weather(ghi,70,2,0).
night(70,2).
pred(wind,70,3,190258).
pred(solar,70,3,0).
pred(load,70,3,776664).
pred(price,70,3,23039).
weather(wind_speed,70,3,225).
weather(ghi,70,3,0).
night(70,3).
pred(wind,70,4,190149).
pred(solar,70,4,0).
pred(load,70,4,804888).
pred(price,70,4,23375).
weather(wind_speed,70,4,200).
weather(ghi,70,4,0).
night(70,4).
pred(wind,70,5,188869).
pred(solar,70,5,0).
pred(load,70,5,834441).
pred(price,70,5,23747).
weather(wind_speed,70,5,235).
weather(ghi,70,5,0).
night(70,5).
pred(wind,70,6,193049).
pred(solar,70,6,0).
pred(load,70,6,865121).
pred(price,70,6,24030).
weather(wind_speed,70,6,252).
weather(ghi,70,6,0).
night(70,6).
pred(wind,70,7,196299).
pred(solar,70,7,0).
pred(load,70,7,885568).
pred(price,70,7,24217).
weather(wind_speed,70,7,206).
weather(ghi,70,7,0).
pred(wind,70,8,202599).
pred(solar,70,8,0).
pred(load,70,8,898595).
pred(price,70,8,24254).
weather(wind_speed,70,8,177).
weather(ghi,70,8,0).
pred(wind,70,9,201101).
pred(solar,70,9,5835).
pred(load,70,9,898539).
pred(price,70,9,24049).
weather(wind_speed,70,9,234).
weather(ghi,70,9,0).
pred(wind,70,10,192637).
pred(solar,70,10,11785).
pred(load,70,10,881688).
pred(price,70,10,23681).
weather(wind_speed,70,10,283).
weather(ghi,70,10,1300).
pred(wind,70,11,181507).
pred(solar,70,11,14875).
pred(load,70,11,868568).
pred(price,70,11,23381).
weather(wind_speed,70,11,254).
weather(ghi,70,11,4500).
pred(wind,70,12,171963).
pred(solar,70,12,14874).
pred(load,70,12,874929).
pred(price,70,12,23356).
weather(wind_speed,70,12,259).
weather(ghi,70,12,9100).
sample(71).
cap(wind,71,350000).
cap(solar,71,250000).
pred(wind,71,1,191242).
pred(solar,71,1,4577).
pred(load,71,1,739965).
pred(price,71,1,21142).
weather(wind_speed,71,1,198).
weather(ghi,71,1,0).
night(71,1).
pred(wind,71,2,195605).
pred(solar,71,2,0).
pred(load,71,2,754297).
pred(price,71,2,20911).
weather(wind_speed,71,2,225).
weather(ghi,71,2,0).
night(71,2).
pred(wind,71,3,197921).
pred(solar,71,3,0).
pred(load,71,3,781038).
pred(price,71,3,21005).
weather(wind_speed,71,3,200).
weather(ghi,71,3,0).
night(71,3).
pred(wind,71,4,199552).
pred(solar,71,4,0).
pred(load,71,4,812543).
pred(price,71,4,21295).
weather(wind_speed,71,4,235).
weather(ghi,71,4,0).
night(71,4).
pred(wind,71,5,197552).
pred(solar,71,5,0).
pred(load,71,5,842557).
pred(price,71,5,21631).
weather(wind_speed,71,5,252).
weather(ghi,71,5,0).
night(71,5).
pred(wind,71,6,200412).
pred(solar,71,6,0).
pred(load,71,6,873271).
pred(price,71,6,21973).
weather(wind_speed,71,6,206).
weather(ghi,71,6,0).
pred(wind,71,7,201798).
pred(solar,71,7,0).
pred(load,71,7,894559).
pred(price,71,7,22276).
weather(wind_speed,71,7,177).
weather(ghi,71,7,0).
pred(wind,71,8,208036).
pred(solar,71,8,0).
pred(load,71,8,910056).
pred(price,71,8,22387).
weather(wind_speed,71,8,234).
weather(ghi,71,8,0).
pred(wind,71,9,205041).
pred(solar,71,9,4507).
pred(load,71,9,914016).
pred(price,71,9,22203).
weather(wind_speed,71,9,283).
weather(ghi,71,9,1300).
pred(wind,71,10,193085).
pred(solar,71,10,10739).
pred(load,71,10,897553).
pred(price,71,10,21817).
weather(wind_speed,71,10,254).
weather(ghi,71,10,4500).
pred(wind,71,11,180552).
pred(solar,71,11,14456).
pred(load,71,11,886832).
pred(price,71,11,21449).
weather(wind_speed,71,11,259).
weather(ghi,71,11,9100).
pred(wind,71,12,170267).
pred(solar,71,12,15459).
pred(load,71,12,895020).
pred(price,71,12,21400).
weather(wind_speed,71,12,320).
weather(ghi,71,12,10300).
sample(72).
cap(wind,72,350000).
cap(solar,72,250000).
pred(wind,72,1,184238).
pred(solar,72,1,6228).
pred(load,72,1,734406).
pred(price,72,1,20835).
weather(wind_speed,72,1,225).
weather(ghi,72,1,0).
night(72,1).
pred(wind,72,2,186756).
pred(solar,72,2,349).
pred(load,72,2,755393).
pred(price,72,2,20777).
weather(wind_speed,72,2,200).
weather(ghi,72,2,0).
night(72,2).
pred(wind,72,3,185567).
pred(solar,72,3,0).
pred(load,72,3,789713).
pred(price,72,3,20950).
weather(wind_speed,72,3,235).
weather(ghi,72,3,0).
night(72,3).
pred(wind,72,4,184749).
pred(solar,72,4,0).
pred(load,72,4,826317).
pred(price,72,4,21270).
weather(wind_speed,72,4,252).
weather(ghi,72,4,0).
night(72,4).
pred(wind,72,5,183018).
pred(solar,72,5,0).
pred(load,72,5,854298).
pred(price,72,5,21534).
weather(wind_speed,72,5,206).
weather(ghi,72,5,0).
pred(wind,72,6,188670).
pred(solar,72,6,0).
pred(load,72,6,876833).
pred(price,72,6,21798).
weather(wind_speed,72,6,177).
weather(ghi,72,6,0).
pred(wind,72,7,191797).
pred(solar,72,7,0).
pred(load,72,7,889953).
pred(price,72,7,22055).
weather(wind_speed,72,7,234).
weather(ghi,72,7,0).
pred(wind,72,8,200274).
pred(solar,72,8,0).
pred(load,72,8,902268).
pred(price,72,8,22083).
weather(wind_speed,72,8,283).
weather(ghi,72,8,1300).
pred(wind,72,9,199536).
pred(solar,72,9,5495).
pred(load,72,9,910708).
pred(price,72,9,21920).
weather(wind_speed,72,9,254).
weather(ghi,72,9,4500).
pred(wind,72,10,186621).
pred(solar,72,10,10659).
pred(load,72,10,897923).
pred(price,72,10,21547).
weather(wind_speed,72,10,259).
weather(ghi,72,10,9100).
pred(wind,72,11,172683).
pred(solar,72,11,13633).
pred(load,72,11,891090).
pred(price,72,11,21153).
weather(wind_speed,72,11,320).
weather(ghi,72,11,10300).
pred(wind,72,12,162912).
pred(solar,72,12,15077).
pred(load,72,12,901536).
pred(price,72,12,21050).
weather(wind_speed,72,12,286).
weather(ghi,72,12,11900).
sample(73).
cap(wind,73,350000).
cap(solar,73,250000).
pred(wind,73,1,184472).
pred(solar,73,1,8738).
pred(load,73,1,729042).
pred(price,73,1,20214).
weather(wind_speed,73,1,200).
weather(ghi,73,1,0).
night(73,1).
pred(wind,73,2,185541).
pred(solar,73,2,3694).
pred(load,73,2,757584).
pred(price,73,2,20270).
weather(wind_speed,73,2,235).
weather(ghi,73,2,0).
night(73,2).
pred(wind,73,3,182586).
pred(solar,73,3,0).
pred(load,73,3,798310).
pred(price,73,3,20512).
weather(wind_speed,73,3,252).
weather(ghi,73,3,0).
night(73,3).
pred(wind,73,4,180181).
pred(solar,73,4,0).
pred(load,73,4,840017).
pred(price,73,4,20883).
weather(wind_speed,73,4,206).
weather(ghi,73,4,0).
pred(wind,73,5,178375).
pred(solar,73,5,0).
pred(load,73,5,865872).
pred(price,73,5,21154).
weather(wind_speed,73,5,177).
weather(ghi,73,5,0).
pred(wind,73,6,185628).
pred(solar,73,6,0).
pred(load,73,6,883554).
pred(price,73,6,21315).
weather(wind_speed,73,6,234).
weather(ghi,73,6,0).
pred(wind,73,7,189398).
pred(solar,73,7,0).
pred(load,73,7,895021).
pred(price,73,7,21451).
weather(wind_speed,73,7,283).
weather(ghi,73,7,1300).
pred(wind,73,8,197472).
pred(solar,73,8,3674).
pred(load,73,8,907529).
pred(price,73,8,21424).
weather(wind_speed,73,8,254).
weather(ghi,73,8,4500).
pred(wind,73,9,196411).
pred(solar,73,9,9631).
pred(load,73,9,916837).
pred(price,73,9,21338).
weather(wind_speed,73,9,259).
weather(ghi,73,9,9100).
pred(wind,73,10,182932).
pred(solar,73,10,14163).
pred(load,73,10,903213).
pred(price,73,10,21060).
weather(wind_speed,73,10,320).
weather(ghi,73,10,10300).
pred(wind,73,11,168421).
pred(solar,73,11,16413).
pred(load,73,11,899517).
pred(price,73,11,20770).
weather(wind_speed,73,11,286).
weather(ghi,73,11,11900).
pred(wind,73,12,158966).
pred(solar,73,12,17872).
pred(load,73,12,911056).
pred(price,73,12,20721).
weather(wind_speed,73,12,355).
weather(ghi,73,12,11600).
sample(74).
cap(wind,74,350000).
cap(solar,74,250000).
pred(wind,74,1,176067).
pred(solar,74,1,7278).
pred(load,74,1,725802).
pred(price,74,1,19479).
weather(wind_speed,74,1,235).
weather(ghi,74,1,0).
night(74,1).
pred(wind,74,2,176082).
pred(solar,74,2,3371).
pred(load,74,2,757745).
pred(price,74,2,19636).
weather(wind_speed,74,2,252).
weather(ghi,74,2,0).
night(74,2).
pred(wind,74,3,169674).
pred(solar,74,3,0).
pred(load,74,3,795896).
pred(price,74,3,19930).
weather(wind_speed,74,3,206).
weather(ghi,74,3,0).
pred(wind,74,4,164411).
pred(solar,74,4,0).
pred(load,74,4,828521).
pred(price,74,4,20269).
weather(wind_speed,74,4,177).
weather(ghi,74,4,0).
pred(wind,74,5,158019).
pred(solar,74,5,0).
pred(load,74,5,840440).
pred(price,74,5,20382).
weather(wind_speed,74,5,234).
weather(ghi,74,5,0).
pred(wind,74,6,168163).
pred(solar,74,6,0).
pred(load,74,6,853769).
pred(price,74,6,20374).
weather(wind_speed,74,6,283).
weather(ghi,74,6,1300).
pred(wind,74,7,174551).
pred(solar,74,7,1538).
pred(load,74,7,864736).
pred(price,74,7,20404).
weather(wind_speed,74,7,254).
weather(ghi,74,7,4500).
pred(wind,74,8,180379).
pred(solar,74,8,9916).
pred(load,74,8,872355).
pred(price,74,8,20414).
weather(wind_speed,74,8,259).
weather(ghi,74,8,9100).
pred(wind,74,9,177776).
pred(solar,74,9,16025).
pred(load,74,9,877338).
pred(price,74,9,20381).
weather(wind_speed,74,9,320).
weather(ghi,74,9,10300).
pred(wind,74,10,162259).
pred(solar,74,10,19737).
pred(load,74,10,867462).
pred(price,74,10,20140).
weather(wind_speed,74,10,286).
weather(ghi,74,10,11900).
pred(wind,74,11,150005).
pred(solar,74,11,20520).
pred(load,74,11,877105).
pred(price,74,11,19961).
weather(wind_speed,74,11,355).
weather(ghi,74,11,11600).
pred(wind,74,12,144169).
pred(solar,74,12,20054).
pred(load,74,12,898379).
pred(price,74,12,20059).
weather(wind_speed,74,12,401).
weather(ghi,74,12,9500).
sample(75).
cap(wind,75,350000).
cap(solar,75,250000).
pred(wind,75,1,168980).
pred(solar,75,1,730).
pred(load,75,1,724349).
pred(price,75,1,19279).
weather(wind_speed,75,1,252).
weather(ghi,75,1,0).
night(75,1).
pred(wind,75,2,166021).
pred(solar,75,2,0).
pred(load,75,2,762231).
pred(price,75,2,19530).
weather(wind_speed,75,2,206).
weather(ghi,75,2,0).
pred(wind,75,3,161022).
pred(solar,75,3,0).
pred(load,75,3,803359).
pred(price,75,3,19854).
weather(wind_speed,75,3,177).
weather(ghi,75,3,0).
pred(wind,75,4,152175).
pred(solar,75,4,0).
pred(load,75,4,830939).
pred(price,75,4,20071).
weather(wind_speed,75,4,234).
weather(ghi,75,4,0).
pred(wind,75,5,139752).
pred(solar,75,5,0).
pred(load,75,5,828638).
pred(price,75,5,19982).
weather(wind_speed,75,5,283).
weather(ghi,75,5,1300).
pred(wind,75,6,143737).
pred(solar,75,6,0).
pred(load,75,6,822702).
pred(price,75,6,19813).
weather(wind_speed,75,6,254).
weather(ghi,75,6,4500).
pred(wind,75,7,144007).
pred(solar,75,7,5863).
pred(load,75,7,815625).
pred(price,75,7,19718).
weather(wind_speed,75,7,259).
weather(ghi,75,7,9100).
pred(wind,75,8,147494).
pred(solar,75,8,13858).
pred(load,75,8,812912).
pred(price,75,8,19676).
weather(wind_speed,75,8,320).
weather(ghi,75,8,10300).
pred(wind,75,9,147257).
pred(solar,75,9,18563).
pred(load,75,9,814202).
pred(price,75,9,19639).
weather(wind_speed,75,9,286).
weather(ghi,75,9,11900).
pred(wind,75,10,135344).
pred(solar,75,10,20070).
pred(load,75,10,806740).
pred(price,75,10,19389).
weather(wind_speed,75,10,355).
weather(ghi,75,10,11600).
pred(wind,75,11,124062).
pred(solar,75,11,17752).
pred(load,75,11,815429).
pred(price,75,11,19205).
weather(wind_speed,75,11,401).
weather(ghi,75,11,9500).
pred(wind,75,12,119922).
pred(solar,75,12,13845).
pred(load,75,12,836068).
pred(price,75,12,19308).
weather(wind_speed,75,12,357).
weather(ghi,75,12,4100).
sample(76).
cap(wind,76,350000).
cap(solar,76,250000).
pred(wind,76,1,150738).
pred(solar,76,1,418).
pred(load,76,1,757465).
pred(price,76,1,19660).
weather(wind_speed,76,1,206).
weather(ghi,76,1,0).
pred(wind,76,2,148193).
pred(solar,76,2,0).
pred(load,76,2,796775).
pred(price,76,2,20019).
weather(wind_speed,76,2,177).
weather(ghi,76,2,0).
pred(wind,76,3,145947).
pred(solar,76,3,0).
pred(load,76,3,823910).
pred(price,76,3,20399).
weather(wind_speed,76,3,234).
weather(ghi,76,3,0).
pred(wind,76,4,137371).
pred(solar,76,4,0).
pred(load,76,4,842900).
pred(price,76,4,20593).
weather(wind_speed,76,4,283).
weather(ghi,76,4,1300).
pred(wind,76,5,121095).
pred(solar,76,5,0).
pred(load,76,5,833652).
pred(price,76,5,20447).
weather(wind_speed,76,5,254).
weather(ghi,76,5,4500).
pred(wind,76,6,116749).
pred(solar,76,6,1830).
pred(load,76,6,816749).
pred(price,76,6,20183).
weather(wind_speed,76,6,259).
weather(ghi,76,6,9100).
pred(wind,76,7,108869).
pred(solar,76,7,9877).
pred(load,76,7,793286).
pred(price,76,7,19846).
weather(wind_speed,76,7,320).
weather(ghi,76,7,10300).
pred(wind,76,8,102701).
pred(solar,76,8,15356).
pred(load,76,8,780361).
pred(price,76,8,19523).
weather(wind_speed,76,8,286).
weather(ghi,76,8,11900).
pred(wind,76,9,100257).
pred(solar,76,9,17399).
pred(load,76,9,775322).
pred(price,76,9,19261).
weather(wind_speed,76,9,355).
weather(ghi,76,9,11600).
pred(wind,76,10,93940).
pred(solar,76,10,16710).
pred(load,76,10,762685).
pred(price,76,10,18923).
weather(wind_speed,76,10,401).
weather(ghi,76,10,9500).
pred(wind,76,11,87247).
pred(solar,76,11,12902).
pred(load,76,11,767351).
pred(price,76,11,18781).
weather(wind_speed,76,11,357).
weather(ghi,76,11,4100).
pred(wind,76,12,90216).
pred(solar,76,12,9035).
pred(load,76,12,787281).
pred(price,76,12,19076).
weather(wind_speed,76,12,332).
weather(ghi,76,12,500).
sample(77).
cap(wind,77,350000).
cap(solar,77,250000).
pred(wind,77,1,157771).
pred(solar,77,1,0).
pred(load,77,1,769331).
pred(price,77,1,21198).
weather(wind_speed,77,1,177).
weather(ghi,77,1,0).
pred(wind,77,2,159773).
pred(solar,77,2,0).
pred(load,77,2,781694).
pred(price,77,2,21272).
weather(wind_speed,77,2,234).
weather(ghi,77,2,0).
pred(wind,77,3,163907).
pred(solar,77,3,0).
pred(load,77,3,782018).
pred(price,77,3,21186).
weather(wind_speed,77,3,283).
weather(ghi,77,3,1300).
pred(wind,77,4,159285).
pred(solar,77,4,0).
pred(load,77,4,782273).
pred(price,77,4,20946).
weather(wind_speed,77,4,254).
weather(ghi,77,4,4500).
pred(wind,77,5,145773).
pred(solar,77,5,0).
pred(load,77,5,769776).
pred(price,77,5,20480).
weather(wind_speed,77,5,259).
weather(ghi,77,5,9100).
pred(wind,77,6,132042).
pred(solar,77,6,0).
pred(load,77,6,753231).
pred(price,77,6,20066).
weather(wind_speed,77,6,320).
weather(ghi,77,6,10300).
pred(wind,77,7,117129).
pred(solar,77,7,7493).
pred(load,77,7,733392).
pred(price,77,7,19777).
weather(wind_speed,77,7,286).
weather(ghi,77,7,11900).
pred(wind,77,8,112681).
pred(solar,77,8,12304).
pred(load,77,8,724836).
pred(price,77,8,19601).
weather(wind_speed,77,8,355).
weather(ghi,77,8,11600).
pred(wind,77,9,109326).
pred(solar,77,9,14623).
pred(load,77,9,720939).
pred(price,77,9,19411).
weather(wind_speed,77,9,401).
weather(ghi,77,9,9500).
pred(wind,77,10,105577).
pred(solar,77,10,16420).
pred(load,77,10,711592).
pred(price,77,10,19114).
weather(wind_speed,77,10,357).
weather(ghi,77,10,4100).
pred(wind,77,11,103502).
pred(solar,77,11,16842).
pred(load,77,11,712350).
pred(price,77,11,19036).
weather(wind_speed,77,11,332).
weather(ghi,77,11,500).
pred(wind,77,12,104604).
pred(solar,77,12,19024).
pred(load,77,12,724976).
pred(price,77,12,19400).
weather(wind_speed,77,12,286).
weather(ghi,77,12,0).
sample(78).
cap(wind,78,350000).
cap(solar,78,250000).
pred(wind,78,1,155566).
pred(solar,78,1,2009).
pred(load,78,1,814924).
pred(price,78,1,25338).
weather(wind_speed,78,1,234).
weather(ghi,78,1,0).
pred(wind,78,2,146022).
pred(solar,78,2,1654).
pred(load,78,2,818529).
pred(price,78,2,25052).
weather(wind_speed,78,2,283).
weather(ghi,78,2,1300).
pred(wind,78,3,145417).
pred(solar,78,3,0).
pred(load,78,3,814068).
pred(price,78,3,24484).
weather(wind_speed,78,3,254).
weather(ghi,78,3,4500).
pred(wind,78,4,143854).
pred(solar,78,4,0).
pred(load,78,4,813213).
pred(price,78,4,24077).
weather(wind_speed,78,4,259).
weather(ghi,78,4,9100).
pred(wind,78,5,136598).
pred(solar,78,5,0).
pred(load,78,5,805474).
pred(price,78,5,23680).
weather(wind_speed,78,5,320).
weather(ghi,78,5,10300).
pred(wind,78,6,124111).
pred(solar,78,6,1813).
pred(load,78,6,792572).
pred(price,78,6,23288).
weather(wind_speed,78,6,286).
weather(ghi,78,6,11900).
pred(wind,78,7,113065).
pred(solar,78,7,7745).
pred(load,78,7,770567).
pred(price,78,7,23219).
weather(wind_speed,78,7,355).
weather(ghi,78,7,11600).
pred(wind,78,8,107939).
pred(solar,78,8,10318).
pred(load,78,8,749841).
pred(price,78,8,23177).
weather(wind_speed,78,8,401).
weather(ghi,78,8,9500).
pred(wind,78,9,103677).
pred(solar,78,9,11979).
pred(load,78,9,738214).
pred(price,78,9,22968).
weather(wind_speed,78,9,357).
weather(ghi,78,9,4100).
pred(wind,78,10,99514).
pred(solar,78,10,14246).
pred(load,78,10,727146).
pred(price,78,10,22680).
weather(wind_speed,78,10,332).
weather(ghi,78,10,500).
pred(wind,78,11,98646).
pred(solar,78,11,16137).
pred(load,78,11,722649).
pred(price,78,11,22591).
weather(wind_speed,78,11,286).
weather(ghi,78,11,0).
pred(wind,78,12,97063).
pred(solar,78,12,20382).
pred(load,78,12,718104).
pred(price,78,12,22841).
weather(wind_speed,78,12,219).
weather(ghi,78,12,0).
sample(79).
cap(wind,79,350000).
cap(solar,79,250000).
pred(wind,79,1,145332).
pred(solar,79,1,829).
pred(load,79,1,843580).
pred(price,79,1,30705).
weather(wind_speed,79,1,283).
weather(ghi,79,1,1300).
pred(wind,79,2,130888).
pred(solar,79,2,929).
pred(load,79,2,837937).
pred(price,79,2,30105).
weather(wind_speed,79,2,254).
weather(ghi,79,2,4500).
pred(wind,79,3,131187).
pred(solar,79,3,0).
pred(load,79,3,827263).
pred(price,79,3,29438).
weather(wind_speed,79,3,259).
weather(ghi,79,3,9100).
pred(wind,79,4,133019).
pred(solar,79,4,0).
pred(load,79,4,824160).
pred(price,79,4,29046).
weather(wind_speed,79,4,320).
weather(ghi,79,4,10300).
pred(wind,79,5,131981).
pred(solar,79,5,0).
pred(load,79,5,821248).
pred(price,79,5,28663).
weather(wind_speed,79,5,286).
weather(ghi,79,5,11900).
pred(wind,79,6,129667).
pred(solar,79,6,1819).
pred(load,79,6,818544).
pred(price,79,6,28241).
weather(wind_speed,79,6,355).
weather(ghi,79,6,11600).
pred(wind,79,7,127275).
pred(solar,79,7,6264).
pred(load,79,7,806051).
pred(price,79,7,28041).
weather(wind_speed,79,7,401).
weather(ghi,79,7,9500).
pred(wind,79,8,127480).
pred(solar,79,8,8029).
pred(load,79,8,784685).
pred(price,79,8,27883).
weather(wind_speed,79,8,357).
weather(ghi,79,8,4100).
pred(wind,79,9,127532).
pred(solar,79,9,10522).
pred(load,79,9,768204).
pred(price,79,9,27668).
weather(wind_speed,79,9,332).
weather(ghi,79,9,500).
pred(wind,79,10,121593).
pred(solar,79,10,13961).
pred(load,79,10,753817).
pred(price,79,10,27414).
weather(wind_speed,79,10,286).
weather(ghi,79,10,0).
pred(wind,79,11,121380).
pred(solar,79,11,17387).
pred(load,79,11,748421).
pred(price,79,11,27297).
weather(wind_speed,79,11,219).
weather(ghi,79,11,0).
pred(wind,79,12,119564).
pred(solar,79,12,22384).
pred(load,79,12,740306).
pred(price,79,12,27485).
weather(wind_speed,79,12,200).
weather(ghi,79,12,0).
sample(80).
cap(wind,80,350000).
cap(solar,80,250000).
pred(wind,80,1,137929).
pred(solar,80,1,0).
pred(load,80,1,844499).
pred(price,80,1,32463).
weather(wind_speed,80,1,254).
weather(ghi,80,1,4500).
pred(wind,80,2,125634).
pred(solar,80,2,0).
pred(load,80,2,837835).
pred(price,80,2,31883).
weather(wind_speed,80,2,259).
weather(ghi,80,2,9100).
pred(wind,80,3,127095).
pred(solar,80,3,0).
pred(load,80,3,829766).
pred(price,80,3,31216).
weather(wind_speed,80,3,320).
weather(ghi,80,3,10300).
pred(wind,80,4,126905).
pred(solar,80,4,0).
pred(load,80,4,830670).
pred(price,80,4,30844).
weather(wind_speed,80,4,286).
weather(ghi,80,4,11900).
pred(wind,80,5,124899).
pred(solar,80,5,0).
pred(load,80,5,832447).
pred(price,80,5,30440).
weather(wind_speed,80,5,355).
weather(ghi,80,5,11600).
pred(wind,80,6,123429).
pred(solar,80,6,0).
pred(load,80,6,830192).
pred(price,80,6,29907).
weather(wind_speed,80,6,401).
weather(ghi,80,6,9500).
pred(wind,80,7,121261).
pred(solar,80,7,4436).
pred(load,80,7,815915).
pred(price,80,7,29601).
weather(wind_speed,80,7,357).
weather(ghi,80,7,4100).
pred(wind,80,8,122655).
pred(solar,80,8,8021).
pred(load,80,8,790567).
pred(price,80,8,29391).
weather(wind_speed,80,8,332).
weather(ghi,80,8,500).
pred(wind,80,9,123914).
pred(solar,80,9,12273).
pred(load,80,9,769089).
pred(price,80,9,29203).
weather(wind_speed,80,9,286).
weather(ghi,80,9,0).
pred(wind,80,10,120341).
pred(solar,80,10,17193).
pred(load,80,10,751781).
pred(price,80,10,28949).
weather(wind_speed,80,10,219).
weather(ghi,80,10,0).
pred(wind,80,11,123920).
pred(solar,80,11,21368).
pred(load,80,11,747527).
pred(price,80,11,28812).
weather(wind_speed,80,11,200).
weather(ghi,80,11,0).
pred(wind,80,12,125737).
pred(solar,80,12,26612).
pred(load,80,12,742410).
pred(price,80,12,29016).
weather(wind_speed,80,12,191).
weather(ghi,80,12,0).
sample(81).
cap(wind,81,350000).
cap(solar,81,250000).
pred(wind,81,1,142348).
pred(solar,81,1,1877).
pred(load,81,1,865630).
pred(price,81,1,29714).
weather(wind_speed,81,1,259).
weather(ghi,81,1,9100).
pred(wind,81,2,136182).
pred(solar,81,2,399).
pred(load,81,2,871032).
pred(price,81,2,29326).
weather(wind_speed,81,2,320).
weather(ghi,81,2,10300).
pred(wind,81,3,143304).
pred(solar,81,3,0).
pred(load,81,3,873617).
pred(price,81,3,28748).
weather(wind_speed,81,3,286).
weather(ghi,81,3,11900).
pred(wind,81,4,147881).
pred(solar,81,4,0).
pred(load,81,4,874264).
pred(price,81,4,28265).
weather(wind_speed,81,4,355).
weather(ghi,81,4,11600).
pred(wind,81,5,147586).
pred(solar,81,5,0).
pred(load,81,5,869788).
pred(price,81,5,27579).
weather(wind_speed,81,5,401).
weather(ghi,81,5,9500).
pred(wind,81,6,149612).
pred(solar,81,6,7170).
pred(load,81,6,848566).
pred(price,81,6,26887).
weather(wind_speed,81,6,357).
weather(ghi,81,6,4100).
pred(wind,81,7,149470).
pred(solar,81,7,16310).
pred(load,81,7,822136).
pred(price,81,7,26600).
weather(wind_speed,81,7,332).
weather(ghi,81,7,500).
pred(wind,81,8,148520).
pred(solar,81,8,22600).
pred(load,81,8,788260).
pred(price,81,8,26489).
weather(wind_speed,81,8,286).
weather(ghi,81,8,0).
pred(wind,81,9,148136).
pred(solar,81,9,26848).
pred(load,81,9,766585).
pred(price,81,9,26570).
weather(wind_speed,81,9,219).
weather(ghi,81,9,0).
pred(wind,81,10,151473).
pred(solar,81,10,27974).
pred(load,81,10,749841).
pred(price,81,10,26476).
weather(wind_speed,81,10,200).
weather(ghi,81,10,0).
pred(wind,81,11,160459).
pred(solar,81,11,26093).
pred(load,81,11,749785).
pred(price,81,11,26414).
weather(wind_speed,81,11,191).
weather(ghi,81,11,0).
pred(wind,81,12,167056).
pred(solar,81,12,25163).
pred(load,81,12,749571).
pred(price,81,12,26538).
weather(wind_speed,81,12,156).
weather(ghi,81,12,0).
night(81,12).
sample(82).
cap(wind,82,350000).
cap(solar,82,250000).
pred(wind,82,1,149974).
pred(solar,82,1,10067).
pred(load,82,1,875108).
pred(price,82,1,28764).
weather(wind_speed,82,1,320).
weather(ghi,82,1,10300).
pred(wind,82,2,148308).
pred(solar,82,2,4771).
pred(load,82,2,885928).
pred(price,82,2,28877).
weather(wind_speed,82,2,286).
weather(ghi,82,2,11900).
pred(wind,82,3,140702).
pred(solar,82,3,0).
pred(load,82,3,886891).
pred(price,82,3,28920).
weather(wind_speed,82,3,355).
weather(ghi,82,3,11600).
pred(wind,82,4,132576).
pred(solar,82,4,0).
pred(load,82,4,883440).
pred(price,82,4,28582).
weather(wind_speed,82,4,401).
weather(ghi,82,4,9500).
pred(wind,82,5,126075).
pred(solar,82,5,148).
pred(load,82,5,878375).
pred(price,82,5,28008).
weather(wind_speed,82,5,357).
weather(ghi,82,5,4100).
pred(wind,82,6,115674).
pred(solar,82,6,6511).
pred(load,82,6,859896).
pred(price,82,6,27448).
weather(wind_speed,82,6,332).
weather(ghi,82,6,500).
pred(wind,82,7,113043).
pred(solar,82,7,13206).
pred(load,82,7,827946).
pred(price,82,7,26989).
weather(wind_speed,82,7,286).
weather(ghi,82,7,0).
pred(wind,82,8,113007).
pred(solar,82,8,16284).
pred(load,82,8,808903).
pred(price,82,8,26510).
weather(wind_speed,82,8,219).
weather(ghi,82,8,0).
pred(wind,82,9,114900).
pred(solar,82,9,18424).
pred(load,82,9,784954).
pred(price,82,9,25962).
weather(wind_speed,82,9,200).
weather(ghi,82,9,0).
pred(wind,82,10,111392).
pred(solar,82,10,18957).
pred(load,82,10,770474).
pred(price,82,10,25570).
weather(wind_speed,82,10,191).
weather(ghi,82,10,0).
pred(wind,82,11,103161).
pred(solar,82,11,17840).
pred(load,82,11,757923).
pred(price,82,11,25304).
weather(wind_speed,82,11,156).
weather(ghi,82,11,0).
night(82,11).
pred(wind,82,12,105296).
pred(solar,82,12,17309).
pred(load,82,12,753871).
pred(price,82,12,25373).
weather(wind_speed,82,12,112).
weather(ghi,82,12,0).
night(82,12).
sample(83).
cap(wind,83,350000).
cap(solar,83,250000).
pred(wind,83,1,155986).
pred(solar,83,1,8003).
pred(load,83,1,875896).
pred(price,83,1,28388).
weather(wind_speed,83,1,286).
weather(ghi,83,1,11900).
pred(wind,83,2,160901).
pred(solar,83,2,4621).
pred(load,83,2,875093).
pred(price,83,2,28122).
weather(wind_speed,83,2,355).
weather(ghi,83,2,11600).
pred(wind,83,3,164736).
pred(solar,83,3,3846).
pred(load,83,3,864754).
pred(price,83,3,27864).
weather(wind_speed,83,3,401).
weather(ghi,83,3,9500).
pred(wind,83,4,169819).
pred(solar,83,4,5494).
pred(load,83,4,844942).
pred(price,83,4,27496).
weather(wind_speed,83,4,357).
weather(ghi,83,4,4100).
pred(wind,83,5,176496).
pred(solar,83,5,8301).
pred(load,83,5,830369).
pred(price,83,5,27101).
weather(wind_speed,83,5,332).
weather(ghi,83,5,500).
pred(wind,83,6,178554).
pred(solar,83,6,12733).
pred(load,83,6,818789).
pred(price,83,6,26682).
weather(wind_speed,83,6,286).
weather(ghi,83,6,0).
pred(wind,83,7,175912).
pred(solar,83,7,18650).
pred(load,83,7,803965).
pred(price,83,7,26276).
weather(wind_speed,83,7,219).
weather(ghi,83,7,0).
pred(wind,83,8,166329).
pred(solar,83,8,25622).
pred(load,83,8,798392).
pred(price,83,8,25789).
weather(wind_speed,83,8,200).
weather(ghi,83,8,0).
pred(wind,83,9,160048).
pred(solar,83,9,32147).
pred(load,83,9,803836).
pred(price,83,9,25385).
weather(wind_speed,83,9,191).
weather(ghi,83,9,0).
pred(wind,83,10,154891).
pred(solar,83,10,35976).
pred(load,83,10,811803).
pred(price,83,10,25277).
weather(wind_speed,83,10,156).
weather(ghi,83,10,0).
night(83,10).
pred(wind,83,11,151698).
pred(solar,83,11,36047).
pred(load,83,11,799927).
pred(price,83,11,25383).
weather(wind_speed,83,11,112).
weather(ghi,83,11,0).
night(83,11).
pred(wind,83,12,153051).
pred(solar,83,12,32623).
pred(load,83,12,785657).
pred(price,83,12,25439).
weather(wind_speed,83,12,139).
weather(ghi,83,12,0).
night(83,12).
sample(84).
cap(wind,84,350000).
cap(solar,84,250000).
pred(wind,84,1,145636).
pred(solar,84,1,8363).
pred(load,84,1,859245).
pred(price,84,1,27583).
weather(wind_speed,84,1,355).
weather(ghi,84,1,11600).
pred(wind,84,2,151774).
pred(solar,84,2,3725).
pred(load,84,2,860933).
pred(price,84,2,27365).
weather(wind_speed,84,2,401).
weather(ghi,84,2,9500).
pred(wind,84,3,156266).
pred(solar,84,3,2215).
pred(load,84,3,855463).
pred(price,84,3,27121).
weather(wind_speed,84,3,357).
weather(ghi,84,3,4100).
pred(wind,84,4,161919).
pred(solar,84,4,3653).
pred(load,84,4,838849).
pred(price,84,4,26740).
weather(wind_speed,84,4,332).
weather(ghi,84,4,500).
pred(wind,84,5,171033).
pred(solar,84,5,6947).
pred(load,84,5,821480).
pred(price,84,5,26347).
weather(wind_speed,84,5,286).
weather(ghi,84,5,0).
pred(wind,84,6,174675).
pred(solar,84,6,12193).
pred(load,84,6,802315).
pred(price,84,6,25901).
weather(wind_speed,84,6,219).
weather(ghi,84,6,0).
pred(wind,84,7,171713).
pred(solar,84,7,18924).
pred(load,84,7,783406).
pred(price,84,7,25394).
weather(wind_speed,84,7,200).
weather(ghi,84,7,0).
pred(wind,84,8,162315).
pred(solar,84,8,26002).
pred(load,84,8,774366).
pred(price,84,8,24824).
weather(wind_speed,84,8,191).
weather(ghi,84,8,0).
pred(wind,84,9,154770).
pred(solar,84,9,31735).
pred(load,84,9,778982).
pred(price,84,9,24393).
weather(wind_speed,84,9,156).
weather(ghi,84,9,0).
night(84,9).
pred(wind,84,10,148101).
pred(solar,84,10,34506).
pred(load,84,10,786870).
pred(price,84,10,24247).
weather(wind_speed,84,10,112).
weather(ghi,84,10,0).
night(84,10).
pred(wind,84,11,144253).
pred(solar,84,11,33892).
pred(load,84,11,774840).
pred(price,84,11,24287).
weather(wind_speed,84,11,139).
weather(ghi,84,11,0).
night(84,11).
pred(wind,84,12,144705).
pred(solar,84,12,30608).
pred(load,84,12,761185).
pred(price,84,12,24285).
weather(wind_speed,84,12,98).
weather(ghi,84,12,0).
night(84,12).
sample(85).
cap(wind,85,350000).
cap(solar,85,250000).
pred(wind,85,1,158887).
pred(solar,85,1,13922).
pred(load,85,1,897475).
pred(price,85,1,25954).
weather(wind_speed,85,1,401).
weather(ghi,85,1,9500).
pred(wind,85,2,152015).
pred(solar,85,2,6642).
pred(load,85,2,898715).
pred(price,85,2,25841).
weather(wind_speed,85,2,357).
weather(ghi,85,2,4100).
pred(wind,85,3,147244).
pred(solar,85,3,1421).
pred(load,85,3,885785).
pred(price,85,3,25854).
weather(wind_speed,85,3,332).
weather(ghi,85,3,500).
pred(wind,85,4,146927).
pred(solar,85,4,36).
pred(load,85,4,869900).
pred(price,85,4,25616).
weather(wind_speed,85,4,286).
weather(ghi,85,4,0).
pred(wind,85,5,150258).
pred(solar,85,5,3157).
pred(load,85,5,855667).
pred(price,85,5,25344).
weather(wind_speed,85,5,219).
weather(ghi,85,5,0).
pred(wind,85,6,152763).
pred(solar,85,6,9833).
pred(load,85,6,831219).
pred(price,85,6,24943).
weather(wind_speed,85,6,200).
weather(ghi,85,6,0).
pred(wind,85,7,148066).
pred(solar,85,7,18328).
pred(load,85,7,796583).
pred(price,85,7,24616).
weather(wind_speed,85,7,191).
weather(ghi,85,7,0).
pred(wind,85,8,138495).
pred(solar,85,8,25432).
pred(load,85,8,772320).
pred(price,85,8,24183).
weather(wind_speed,85,8,156).
weather(ghi,85,8,0).
night(85,8).
pred(wind,85,9,128602).
pred(solar,85,9,29654).
pred(load,85,9,763893).
pred(price,85,9,23881).
weather(wind_speed,85,9,112).
weather(ghi,85,9,0).
night(85,9).
pred(wind,85,10,123869).
pred(solar,85,10,30953).
pred(load,85,10,767819).
pred(price,85,10,23713).
weather(wind_speed,85,10,139).
weather(ghi,85,10,0).
night(85,10).
pred(wind,85,11,122793).
pred(solar,85,11,30042).
pred(load,85,11,776825).
pred(price,85,11,23764).
weather(wind_speed,85,11,98).
weather(ghi,85,11,0).
night(85,11).
pred(wind,85,12,129049).
pred(solar,85,12,28245).
pred(load,85,12,791048).
pred(price,85,12,23679).
weather(wind_speed,85,12,191).
weather(ghi,85,12,0).
night(85,12).
sample(86).
cap(wind,86,350000).
cap(solar,86,250000).
pred(wind,86,1,136030).
pred(solar,86,1,2470).
pred(load,86,1,872952).
pred(price,86,1,27218).
weather(wind_speed,86,1,357).
weather(ghi,86,1,4100).
pred(wind,86,2,135118).
pred(solar,86,2,0).
pred(load,86,2,901754).
pred(price,86,2,27059).
weather(wind_speed,86,2,332).
weather(ghi,86,2,500).
pred(wind,86,3,149634).
pred(solar,86,3,0).
pred(load,86,3,905982).
pred(price,86,3,26567).
weather(wind_speed,86,3,286).
weather(ghi,86,3,0).
pred(wind,86,4,160329).
pred(solar,86,4,1986).
pred(load,86,4,889610).
pred(price,86,4,26095).
weather(wind_speed,86,4,219).
weather(ghi,86,4,0).
pred(wind,86,5,164815).
pred(solar,86,5,5539).
pred(load,86,5,863898).
pred(price,86,5,25299).
weather(wind_speed,86,5,200).
weather(ghi,86,5,0).
pred(wind,86,6,166558).
pred(solar,86,6,10086).
pred(load,86,6,816328).
pred(price,86,6,24505).
weather(wind_speed,86,6,191).
weather(ghi,86,6,0).
pred(wind,86,7,164745).
pred(solar,86,7,13173).
pred(load,86,7,761452).
pred(price,86,7,24022).
weather(wind_speed,86,7,156).
weather(ghi,86,7,0).
night(86,7).
pred(wind,86,8,159130).
pred(solar,86,8,14209).
pred(load,86,8,706953).
pred(price,86,8,23617).
weather(wind_speed,86,8,112).
weather(ghi,86,8,0).
night(86,8).
pred(wind,86,9,154867).
pred(solar,86,9,13647).
pred(load,86,9,682129).
pred(price,86,9,23411).
weather(wind_speed,86,9,139).
weather(ghi,86,9,0).
night(86,9).
pred(wind,86,10,157873).
pred(solar,86,10,11206).
pred(load,86,10,681449).
pred(price,86,10,23162).
weather(wind_speed,86,10,98).
weather(ghi,86,10,0).
night(86,10).
pred(wind,86,11,162596).
pred(solar,86,11,7286).
pred(load,86,11,696847).
pred(price,86,11,23118).
weather(wind_speed,86,11,191).
weather(ghi,86,11,0).
night(86,11).
pred(wind,86,12,164877).
pred(solar,86,12,5364).
pred(load,86,12,711248).
pred(price,86,12,23444).
weather(wind_speed,86,12,189).
weather(ghi,86,12,0).
night(86,12).
sample(87).
cap(wind,87,350000).
cap(solar,87,250000).
pred(wind,87,1,143829).
pred(solar,87,1,0).
pred(load,87,1,887255).
pred(price,87,1,27923).
weather(wind_speed,87,1,332).
weather(ghi,87,1,500).
pred(wind,87,2,132598).
pred(solar,87,2,0).
pred(load,87,2,907916).
pred(price,87,2,27643).
weather(wind_speed,87,2,286).
weather(ghi,87,2,0).
pred(wind,87,3,136372).
pred(solar,87,3,0).
pred(load,87,3,906459).
pred(price,87,3,27125).
weather(wind_speed,87,3,219).
weather(ghi,87,3,0).
pred(wind,87,4,138764).
pred(solar,87,4,0).
pred(load,87,4,889866).
pred(price,87,4,26569).
weather(wind_speed,87,4,200).
weather(ghi,87,4,0).
pred(wind,87,5,136072).
pred(solar,87,5,0).
pred(load,87,5,866259).
pred(price,87,5,25737).
weather(wind_speed,87,5,191).
weather(ghi,87,5,0).
pred(wind,87,6,134689).
pred(solar,87,6,0).
pred(load,87,6,826066).
pred(price,87,6,24794).
weather(wind_speed,87,6,156).
weather(ghi,87,6,0).
night(87,6).
pred(wind,87,7,133106).
pred(solar,87,7,3205).
pred(load,87,7,780083).
pred(price,87,7,24190).
weather(wind_speed,87,7,112).
weather(ghi,87,7,0).
night(87,7).
pred(wind,87,8,131993).
pred(solar,87,8,6905).
pred(load,87,8,729692).
pred(price,87,8,23684).
weather(wind_speed,87,8,139).
weather(ghi,87,8,0).
night(87,8).
pred(wind,87,9,129331).
pred(solar,87,9,10099).
pred(load,87,9,701837).
pred(price,87,9,23481).
weather(wind_speed,87,9,98).
weather(ghi,87,9,0).
night(87,9).
pred(wind,87,10,128462).
pred(solar,87,10,12555).
pred(load,87,10,699079).
pred(price,87,10,23363).
weather(wind_speed,87,10,191).
weather(ghi,87,10,0).
night(87,10).
pred(wind,87,11,133296).
pred(solar,87,11,13610).
pred(load,87,11,713907).
pred(price,87,11,23390).
weather(wind_speed,87,11,189).
weather(ghi,87,11,0).
night(87,11).
pred(wind,87,12,140894).
pred(solar,87,12,15208).
pred(load,87,12,733507).
pred(price,87,12,23805).
weather(wind_speed,87,12,153).
weather(ghi,87,12,0).
night(87,12).
sample(88).
cap(wind,88,350000).
cap(solar,88,250000).
pred(wind,88,1,157757).
pred(solar,88,1,1299).
pred(load,88,1,879679).
pred(price,88,1,30002).
weather(wind_speed,88,1,286).
weather(ghi,88,1,0).
pred(wind,88,2,152281).
pred(solar,88,2,0).
pred(load,88,2,892662).
pred(price,88,2,29443).
weather(wind_speed,88,2,219).
weather(ghi,88,2,0).
pred(wind,88,3,155324).
pred(solar,88,3,0).
pred(load,88,3,889989).
pred(price,88,3,28606).
weather(wind_speed,88,3,200).
weather(ghi,88,3,0).
pred(wind,88,4,150903).
pred(solar,88,4,0).
pred(load,88,4,871583).
pred(price,88,4,27852).
weather(wind_speed,88,4,191).
weather(ghi,88,4,0).
pred(wind,88,5,144337).
pred(solar,88,5,0).
pred(load,88,5,847491).
pred(price,88,5,27004).
weather(wind_speed,88,5,156).
weather(ghi,88,5,0).
night(88,5).
pred(wind,88,6,142062).
pred(solar,88,6,0).
pred(load,88,6,816773).
pred(price,88,6,26180).
weather(wind_speed,88,6,112).
weather(ghi,88,6,0).
night(88,6).
pred(wind,88,7,139153).
pred(solar,88,7,0).
pred(load,88,7,780692).
pred(price,88,7,25792).
weather(wind_speed,88,7,139).
weather(ghi,88,7,0).
night(88,7).
pred(wind,88,8,137376).
pred(solar,88,8,261).
pred(load,88,8,737667).
pred(price,88,8,25567).
weather(wind_speed,88,8,98).
weather(ghi,88,8,0).
night(88,8).
pred(wind,88,9,131355).
pred(solar,88,9,2995).
pred(load,88,9,704768).
pred(price,88,9,25484).
weather(wind_speed,88,9,191).
weather(ghi,88,9,0).
night(88,9).
pred(wind,88,10,120500).
pred(solar,88,10,6426).
pred(load,88,10,696093).
pred(price,88,10,25332).
weather(wind_speed,88,10,189).
weather(ghi,88,10,0).
night(88,10).
pred(wind,88,11,118393).
pred(solar,88,11,9034).
pred(load,88,11,715640).
pred(price,88,11,25339).
weather(wind_speed,88,11,153).
weather(ghi,88,11,0).
night(88,11).
pred(wind,88,12,122380).
pred(solar,88,12,13236).
pred(load,88,12,743445).
pred(price,88,12,25808).
weather(wind_speed,88,12,125).
weather(ghi,88,12,0).
night(88,12).
sample(89).
cap(wind,89,350000).
cap(solar,89,250000).
pred(wind,89,1,156538).
pred(solar,89,1,0).
pred(load,89,1,871125).
pred(price,89,1,32171).
weather(wind_speed,89,1,219).
weather(ghi,89,1,0).
pred(wind,89,2,154588).
pred(solar,89,2,0).
pred(load,89,2,875994).
pred(price,89,2,31265).
weather(wind_speed,89,2,200).
weather(ghi,89,2,0).
pred(wind,89,3,156675).
pred(solar,89,3,0).
pred(load,89,3,867731).
pred(price,89,3,30174).
weather(wind_speed,89,3,191).
weather(ghi,89,3,0).
pred(wind,89,4,146508).
pred(solar,89,4,0).
pred(load,89,4,844559).
pred(price,89,4,29358).
weather(wind_speed,89,4,156).
weather(ghi,89,4,0).
night(89,4).
pred(wind,89,5,135944).
pred(solar,89,5,0).
pred(load,89,5,816676).
pred(price,89,5,28579).
weather(wind_speed,89,5,112).
weather(ghi,89,5,0).
night(89,5).
pred(wind,89,6,130587).
pred(solar,89,6,0).
pred(load,89,6,786630).
pred(price,89,6,27865).
weather(wind_speed,89,6,139).
weather(ghi,89,6,0).
night(89,6).
pred(wind,89,7,127361).
pred(solar,89,7,0).
pred(load,89,7,756092).
pred(price,89,7,27606).
weather(wind_speed,89,7,98).
weather(ghi,89,7,0).
night(89,7).
pred(wind,89,8,131558).
pred(solar,89,8,0).
pred(load,89,8,728250).
pred(price,89,8,27505).
weather(wind_speed,89,8,191).
weather(ghi,89,8,0).
night(89,8).
pred(wind,89,9,129488).
pred(solar,89,9,0).
pred(load,89,9,705993).
pred(price,89,9,27478).
weather(wind_speed,89,9,189).
weather(ghi,89,9,0).
night(89,9).
pred(wind,89,10,124028).
pred(solar,89,10,2588).
pred(load,89,10,697531).
pred(price,89,10,27378).
weather(wind_speed,89,10,153).
weather(ghi,89,10,0).
night(89,10).
pred(wind,89,11,126770).
pred(solar,89,11,5635).
pred(load,89,11,714185).
pred(price,89,11,27533).
weather(wind_speed,89,11,125).
weather(ghi,89,11,0).
night(89,11).
pred(wind,89,12,131171).
pred(solar,89,12,9843).
pred(load,89,12,746900).
pred(price,89,12,28113).
weather(wind_speed,89,12,126).
weather(ghi,89,12,0).
sample(90).
cap(wind,90,350000).
cap(solar,90,250000).
pred(wind,90,1,154600).
pred(solar,90,1,0).
pred(load,90,1,864753).
pred(price,90,1,33646).
weather(wind_speed,90,1,200).
weather(ghi,90,1,0).
pred(wind,90,2,152442).
pred(solar,90,2,0).
pred(load,90,2,870849).
pred(price,90,2,32596).
weather(wind_speed,90,2,191).
weather(ghi,90,2,0).
pred(wind,90,3,152473).
pred(solar,90,3,0).
pred(load,90,3,861720).
pred(price,90,3,31413).
weather(wind_speed,90,3,156).
weather(ghi,90,3,0).
night(90,3).
pred(wind,90,4,143031).
pred(solar,90,4,0).
pred(load,90,4,844505).
pred(price,90,4,30630).
weather(wind_speed,90,4,112).
weather(ghi,90,4,0).
night(90,4).
pred(wind,90,5,134936).
pred(solar,90,5,0).
pred(load,90,5,828719).
pred(price,90,5,30037).
weather(wind_speed,90,5,139).
weather(ghi,90,5,0).
night(90,5).
pred(wind,90,6,133762).
pred(solar,90,6,0).
pred(load,90,6,809014).
pred(price,90,6,29478).
weather(wind_speed,90,6,98).
weather(ghi,90,6,0).
night(90,6).
pred(wind,90,7,134278).
pred(solar,90,7,0).
pred(load,90,7,783176).
pred(price,90,7,29235).
weather(wind_speed,90,7,191).
weather(ghi,90,7,0).
night(90,7).
pred(wind,90,8,141299).
pred(solar,90,8,844).
pred(load,90,8,759229).
pred(price,90,8,29124).
weather(wind_speed,90,8,189).
weather(ghi,90,8,0).
night(90,8).
pred(wind,90,9,139429).
pred(solar,90,9,2159).
pred(load,90,9,743390).
pred(price,90,9,29133).
weather(wind_speed,90,9,153).
weather(ghi,90,9,0).
night(90,9).
pred(wind,90,10,134342).
pred(solar,90,10,4054).
pred(load,90,10,738726).
pred(price,90,10,29051).
weather(wind_speed,90,10,125).
weather(ghi,90,10,0).
night(90,10).
pred(wind,90,11,135713).
pred(solar,90,11,6134).
pred(load,90,11,755921).
pred(price,90,11,29217).
weather(wind_speed,90,11,126).
weather(ghi,90,11,0).
pred(wind,90,12,140552).
pred(solar,90,12,9239).
pred(load,90,12,783395).
pred(price,90,12,29791).
weather(wind_speed,90,12,163).
weather(ghi,90,12,0).
sample(91).
cap(wind,91,350000).
cap(solar,91,250000).
pred(wind,91,1,168276).
pred(solar,91,1,0).
pred(load,91,1,841442).
pred(price,91,1,33370).
weather(wind_speed,91,1,191).
weather(ghi,91,1,0).
pred(wind,91,2,165379).
pred(solar,91,2,0).
pred(load,91,2,846763).
pred(price,91,2,32277).
weather(wind_speed,91,2,156).
weather(ghi,91,2,0).
night(91,2).
pred(wind,91,3,166959).
pred(solar,91,3,0).
pred(load,91,3,840697).
pred(price,91,3,31239).
weather(wind_speed,91,3,112).
weather(ghi,91,3,0).
night(91,3).
pred(wind,91,4,160062).
pred(solar,91,4,0).
pred(load,91,4,831716).
pred(price,91,4,30635).
weather(wind_speed,91,4,139).
weather(ghi,91,4,0).
night(91,4).
pred(wind,91,5,152976).
pred(solar,91,5,0).
pred(load,91,5,826631).
pred(price,91,5,30172).
weather(wind_speed,91,5,98).
weather(ghi,91,5,0).
night(91,5).
pred(wind,91,6,152579).
pred(solar,91,6,0).
pred(load,91,6,816068).
pred(price,91,6,29644).
weather(wind_speed,91,6,191).
weather(ghi,91,6,0).
night(91,6).
pred(wind,91,7,154318).
pred(solar,91,7,0).
pred(load,91,7,794514).
pred(price,91,7,29315).
weather(wind_speed,91,7,189).
weather(ghi,91,7,0).
night(91,7).
pred(wind,91,8,159730).
pred(solar,91,8,208).
pred(load,91,8,775545).
pred(price,91,8,29184).
weather(wind_speed,91,8,153).
weather(ghi,91,8,0).
night(91,8).
pred(wind,91,9,159726).
pred(solar,91,9,3407).
pred(load,91,9,763782).
pred(price,91,9,29200).
weather(wind_speed,91,9,125).
weather(ghi,91,9,0).
night(91,9).
pred(wind,91,10,154795).
pred(solar,91,10,7159).
pred(load,91,10,759081).
pred(price,91,10,29189).
weather(wind_speed,91,10,126).
weather(ghi,91,10,0).
pred(wind,91,11,152436).
pred(solar,91,11,10503).
pred(load,91,11,772869).
pred(price,91,11,29325).
weather(wind_speed,91,11,163).
weather(ghi,91,11,0).
pred(wind,91,12,153711).
pred(solar,91,12,13586).
pred(load,91,12,795507).
pred(price,91,12,29775).
weather(wind_speed,91,12,193).
weather(ghi,91,12,0).
sample(92).
cap(wind,92,350000).
cap(solar,92,250000).
pred(wind,92,1,172980).
pred(solar,92,1,0).
pred(load,92,1,809963).
pred(price,92,1,27866).
weather(wind_speed,92,1,156).
weather(ghi,92,1,0).
night(92,1).
pred(wind,92,2,171368).
pred(solar,92,2,0).
pred(load,92,2,814652).
pred(price,92,2,26964).
weather(wind_speed,92,2,112).
weather(ghi,92,2,0).
night(92,2).
pred(wind,92,3,174499).
pred(solar,92,3,0).
pred(load,92,3,810731).
pred(price,92,3,26224).
weather(wind_speed,92,3,139).
weather(ghi,92,3,0).
night(92,3).
pred(wind,92,4,170705).
pred(solar,92,4,0).
pred(load,92,4,806963).
pred(price,92,4,25907).
weather(wind_speed,92,4,98).
weather(ghi,92,4,0).
night(92,4).
pred(wind,92,5,165906).
pred(solar,92,5,0).
pred(load,92,5,807803).
pred(price,92,5,25755).
weather(wind_speed,92,5,191).
weather(ghi,92,5,0).
night(92,5).
pred(wind,92,6,167398).
pred(solar,92,6,0).
pred(load,92,6,812257).
pred(price,92,6,25518).
weather(wind_speed,92,6,189).
weather(ghi,92,6,0).
night(92,6).
pred(wind,92,7,169102).
pred(solar,92,7,0).
pred(load,92,7,808994).
pred(price,92,7,25335).
weather(wind_speed,92,7,153).
weather(ghi,92,7,0).
night(92,7).
pred(wind,92,8,172908).
pred(solar,92,8,0).
pred(load,92,8,806527).
pred(price,92,8,25311).
weather(wind_speed,92,8,125).
weather(ghi,92,8,0).
night(92,8).
pred(wind,92,9,172832).
pred(solar,92,9,0).
pred(load,92,9,802644).
pred(price,92,9,25307).
weather(wind_speed,92,9,126).
weather(ghi,92,9,0).
pred(wind,92,10,166818).
pred(solar,92,10,4584).
pred(load,92,10,798571).
pred(price,92,10,25124).
weather(wind_speed,92,10,163).
weather(ghi,92,10,0).
pred(wind,92,11,162779).
pred(solar,92,11,8461).
pred(load,92,11,804729).
pred(price,92,11,25070).
weather(wind_speed,92,11,193).
weather(ghi,92,11,0).
pred(wind,92,12,162804).
pred(solar,92,12,11319).
pred(load,92,12,822210).
pred(price,92,12,25350).
weather(wind_speed,92,12,193).
weather(ghi,92,12,6100).
sample(93).
cap(wind,93,350000).
cap(solar,93,250000).
pred(wind,93,1,176876).
pred(solar,93,1,0).
pred(load,93,1,776191).
pred(price,93,1,24282).
weather(wind_speed,93,1,112).
weather(ghi,93,1,0).
night(93,1).
pred(wind,93,2,176195).
pred(solar,93,2,0).
pred(load,93,2,784527).
pred(price,93,2,23503).
weather(wind_speed,93,2,139).
weather(ghi,93,2,0).
night(93,2).
pred(wind,93,3,179639).
pred(solar,93,3,0).
pred(load,93,3,791496).
pred(price,93,3,22966).
weather(wind_speed,93,3,98).
weather(ghi,93,3,0).
night(93,3).
pred(wind,93,4,178201).
pred(solar,93,4,0).
pred(load,93,4,798057).
pred(price,93,4,22867).
weather(wind_speed,93,4,191).
weather(ghi,93,4,0).
night(93,4).
pred(wind,93,5,177434).
pred(solar,93,5,0).
pred(load,93,5,802913).
pred(price,93,5,22968).
weather(wind_speed,93,5,189).
weather(ghi,93,5,0).
night(93,5).
pred(wind,93,6,181700).
pred(solar,93,6,0).
pred(load,93,6,814359).
pred(price,93,6,22912).
weather(wind_speed,93,6,153).
weather(ghi,93,6,0).
night(93,6).
pred(wind,93,7,185538).
pred(solar,93,7,0).
pred(load,93,7,818139).
pred(price,93,7,22786).
weather(wind_speed,93,7,125).
weather(ghi,93,7,0).
night(93,7).
pred(wind,93,8,190257).
pred(solar,93,8,0).
pred(load,93,8,823482).
pred(price,93,8,22741).
weather(wind_speed,93,8,126).
weather(ghi,93,8,0).
pred(wind,93,9,188828).
pred(solar,93,9,0).
pred(load,93,9,828100).
pred(price,93,9,22703).
weather(wind_speed,93,9,163).
weather(ghi,93,9,0).
pred(wind,93,10,182761).
pred(solar,93,10,2702).
pred(load,93,10,830570).
pred(price,93,10,22462).
weather(wind_speed,93,10,193).
weather(ghi,93,10,0).
pred(wind,93,11,177972).
pred(solar,93,11,7485).
pred(load,93,11,839974).
pred(price,93,11,22335).
weather(wind_speed,93,11,193).
weather(ghi,93,11,6100).
pred(wind,93,12,176490).
pred(solar,93,12,10377).
pred(load,93,12,861529).
pred(price,93,12,22531).
weather(wind_speed,93,12,134).
weather(ghi,93,12,18900).
sample(94).
cap(wind,94,350000).
cap(solar,94,250000).
pred(wind,94,1,170620).
pred(solar,94,1,0).
pred(load,94,1,760248).
pred(price,94,1,22788).
weather(wind_speed,94,1,139).
weather(ghi,94,1,0).
night(94,1).
pred(wind,94,2,169248).
pred(solar,94,2,0).
pred(load,94,2,767084).
pred(price,94,2,22102).
weather(wind_speed,94,2,98).
weather(ghi,94,2,0).
night(94,2).
pred(wind,94,3,170156).
pred(solar,94,3,0).
pred(load,94,3,781589).
pred(price,94,3,21759).
weather(wind_speed,94,3,191).
weather(ghi,94,3,0).
night(94,3).
pred(wind,94,4,170186).
pred(solar,94,4,0).
pred(load,94,4,800394).
pred(price,94,4,21801).
weather(wind_speed,94,4,189).
weather(ghi,94,4,0).
night(94,4).
pred(wind,94,5,170355).
pred(solar,94,5,0).
pred(load,94,5,814535).
pred(price,94,5,21979).
weather(wind_speed,94,5,153).
weather(ghi,94,5,0).
night(94,5).
pred(wind,94,6,172822).
pred(solar,94,6,0).
pred(load,94,6,834573).
pred(price,94,6,22034).
weather(wind_speed,94,6,125).
weather(ghi,94,6,0).
night(94,6).
pred(wind,94,7,174849).
pred(solar,94,7,0).
pred(load,94,7,846017).
pred(price,94,7,22026).
weather(wind_speed,94,7,126).
weather(ghi,94,7,0).
pred(wind,94,8,179968).
pred(solar,94,8,0).
pred(load,94,8,858824).
pred(price,94,8,22054).
weather(wind_speed,94,8,163).
weather(ghi,94,8,0).
pred(wind,94,9,179098).
pred(solar,94,9,455).
pred(load,94,9,866084).
pred(price,94,9,22027).
weather(wind_speed,94,9,193).
weather(ghi,94,9,0).
pred(wind,94,10,175165).
pred(solar,94,10,5837).
pred(load,94,10,863805).
pred(price,94,10,21852).
weather(wind_speed,94,10,193).
weather(ghi,94,10,6100).
pred(wind,94,11,173587).
pred(solar,94,11,9254).
pred(load,94,11,863430).
pred(price,94,11,21712).
weather(wind_speed,94,11,134).
weather(ghi,94,11,18900).
pred(wind,94,12,173896).
pred(solar,94,12,10539).
pred(load,94,12,877540).
pred(price,94,12,21785).
weather(wind_speed,94,12,142).
weather(ghi,94,12,29700).
sample(95).
cap(wind,95,350000).
cap(solar,95,250000).
pred(wind,95,1,178597).
pred(solar,95,1,0).
pred(load,95,1,739941).
pred(price,95,1,21322).
weather(wind_speed,95,1,98).
weather(ghi,95,1,0).
night(95,1).
pred(wind,95,2,179654).
pred(solar,95,2,0).
pred(load,95,2,748682).
pred(price,95,2,20719).
weather(wind_speed,95,2,191).
weather(ghi,95,2,0).
night(95,2).
pred(wind,95,3,179636).
pred(solar,95,3,0).
pred(load,95,3,767368).
pred(price,95,3,20493).
weather(wind_speed,95,3,189).
weather(ghi,95,3,0).
night(95,3).
pred(wind,95,4,176747).
pred(solar,95,4,0).
pred(load,95,4,793737).
pred(price,95,4,20643).
weather(wind_speed,95,4,153).
weather(ghi,95,4,0).
night(95,4).
pred(wind,95,5,173428).
pred(solar,95,5,0).
pred(load,95,5,817619).
pred(price,95,5,20950).
weather(wind_speed,95,5,125).
weather(ghi,95,5,0).
night(95,5).
pred(wind,95,6,174063).
pred(solar,95,6,0).
pred(load,95,6,846281).
pred(price,95,6,21132).
weather(wind_speed,95,6,126).
weather(ghi,95,6,0).
pred(wind,95,7,176270).
pred(solar,95,7,0).
pred(load,95,7,867447).
pred(price,95,7,21209).
weather(wind_speed,95,7,163).
weather(ghi,95,7,0).
pred(wind,95,8,182830).
pred(solar,95,8,0).
pred(load,95,8,885754).
pred(price,95,8,21248).
weather(wind_speed,95,8,193).
weather(ghi,95,8,0).
pred(wind,95,9,184096).
pred(solar,95,9,4038).
pred(load,95,9,890206).
pred(price,95,9,21156).
weather(wind_speed,95,9,193).
weather(ghi,95,9,6100).
pred(wind,95,10,182162).
pred(solar,95,10,10078).
pred(load,95,10,875906).
pred(price,95,10,20942).
weather(wind_speed,95,10,134).
weather(ghi,95,10,18900).
pred(wind,95,11,180637).
pred(solar,95,11,13615).
pred(load,95,11,868196).
pred(price,95,11,20851).
weather(wind_speed,95,11,142).
weather(ghi,95,11,29700).
pred(wind,95,12,179720).
pred(solar,95,12,14224).
pred(load,95,12,883516).
pred(price,95,12,20909).
weather(wind_speed,95,12,149).
weather(ghi,95,12,36200).
sample(96).
cap(wind,96,350000).
cap(solar,96,250000).
pred(wind,96,1,183161).
pred(solar,96,1,0).
pred(load,96,1,723333).
pred(price,96,1,19579).
weather(wind_speed,96,1,191).
weather(ghi,96,1,0).
night(96,1).
pred(wind,96,2,184593).
pred(solar,96,2,0).
pred(load,96,2,738465).
pred(price,96,2,19093).
weather(wind_speed,96,2,189).
weather(ghi,96,2,0).
night(96,2).
pred(wind,96,3,184389).
pred(solar,96,3,0).
pred(load,96,3,764388).
pred(price,96,3,18959).
weather(wind_speed,96,3,153).
weather(ghi,96,3,0).
night(96,3).
pred(wind,96,4,179097).
pred(solar,96,4,0).
pred(load,96,4,797654).
pred(price,96,4,19134).
weather(wind_speed,96,4,125).
weather(ghi,96,4,0).
night(96,4).
pred(wind,96,5,172294).
pred(solar,96,5,0).
pred(load,96,5,825015).
pred(price,96,5,19522).
weather(wind_speed,96,5,126).
weather(ghi,96,5,0).
pred(wind,96,6,169350).
pred(solar,96,6,0).
pred(load,96,6,853380).
pred(price,96,6,19847).
weather(wind_speed,96,6,163).
weather(ghi,96,6,0).
pred(wind,96,7,168137).
pred(solar,96,7,0).
pred(load,96,7,873330).
pred(price,96,7,20073).
weather(wind_speed,96,7,193).
weather(ghi,96,7,0).
pred(wind,96,8,175140).
pred(solar,96,8,3009).
pred(load,96,8,890277).
pred(price,96,8,20201).
weather(wind_speed,96,8,193).
weather(ghi,96,8,6100).
pred(wind,96,9,179598).
pred(solar,96,9,8860).
pred(load,96,9,895021).
pred(price,96,9,20030).
weather(wind_speed,96,9,134).
weather(ghi,96,9,18900).
pred(wind,96,10,178079).
pred(solar,96,10,13943).
pred(load,96,10,878804).
pred(price,96,10,19717).
weather(wind_speed,96,10,142).
weather(ghi,96,10,29700).
pred(wind,96,11,177776).
pred(solar,96,11,16520).
pred(load,96,11,868934).
pred(price,96,11,19574).
weather(wind_speed,96,11,149).
weather(ghi,96,11,36200).
pred(wind,96,12,176308).
pred(solar,96,12,16374).
pred(load,96,12,879189).
pred(price,96,12,19618).
weather(wind_speed,96,12,148).
weather(ghi,96,12,37400).
sample(97).
cap(wind,97,350000).
cap(solar,97,250000).
pred(wind,97,1,179348).
pred(solar,97,1,4492).
pred(load,97,1,724465).
pred(price,97,1,18973).
weather(wind_speed,97,1,189).
weather(ghi,97,1,0).
night(97,1).
pred(wind,97,2,181329).
pred(solar,97,2,942).
pred(load,97,2,749911).
pred(price,97,2,18631).
weather(wind_speed,97,2,153).
weather(ghi,97,2,0).
night(97,2).
pred(wind,97,3,180605).
pred(solar,97,3,0).
pred(load,97,3,784014).
pred(price,97,3,18587).
weather(wind_speed,97,3,125).
weather(ghi,97,3,0).
night(97,3).
pred(wind,97,4,176656).
pred(solar,97,4,0).
pred(load,97,4,821027).
pred(price,97,4,18824).
weather(wind_speed,97,4,126).
weather(ghi,97,4,0).
pred(wind,97,5,172776).
pred(solar,97,5,0).
pred(load,97,5,849744).
pred(price,97,5,19280).
weather(wind_speed,97,5,163).
weather(ghi,97,5,0).
pred(wind,97,6,172451).
pred(solar,97,6,0).
pred(load,97,6,874313).
pred(price,97,6,19721).
weather(wind_speed,97,6,193).
weather(ghi,97,6,0).
pred(wind,97,7,170563).
pred(solar,97,7,0).
pred(load,97,7,889347).
pred(price,97,7,20036).
weather(wind_speed,97,7,193).
weather(ghi,97,7,6100).
pred(wind,97,8,176953).
pred(solar,97,8,4108).
pred(load,97,8,903353).
pred(price,97,8,20102).
weather(wind_speed,97,8,134).
weather(ghi,97,8,18900).
pred(wind,97,9,180598).
pred(solar,97,9,9941).
pred(load,97,9,909772).
pred(price,97,9,19829).
weather(wind_speed,97,9,142).
weather(ghi,97,9,29700).
pred(wind,97,10,176237).
pred(solar,97,10,14407).
pred(load,97,10,896167).
pred(price,97,10,19389).
weather(wind_speed,97,10,149).
weather(ghi,97,10,36200).
pred(wind,97,11,174147).
pred(solar,97,11,16381).
pred(load,97,11,886111).
pred(price,97,11,19200).
weather(wind_speed,97,11,148).
weather(ghi,97,11,37400).
pred(wind,97,12,170128).
pred(solar,97,12,16253).
pred(load,97,12,893673).
pred(price,97,12,19343).
weather(wind_speed,97,12,113).
weather(ghi,97,12,32700).
sample(98).
cap(wind,98,350000).
cap(solar,98,250000).
pred(wind,98,1,174926).
pred(solar,98,1,6585).
pred(load,98,1,731753).
pred(price,98,1,18873).
weather(wind_speed,98,1,153).
weather(ghi,98,1,0).
night(98,1).
pred(wind,98,2,178334).
pred(solar,98,2,3168).
pred(load,98,2,765468).
pred(price,98,2,18726).
weather(wind_speed,98,2,125).
weather(ghi,98,2,0).
night(98,2).
pred(wind,98,3,176809).
pred(solar,98,3,0).
pred(load,98,3,805418).
pred(price,98,3,18783).
weather(wind_speed,98,3,126).
weather(ghi,98,3,0).
pred(wind,98,4,172837).
pred(solar,98,4,0).
pred(load,98,4,843023).
pred(price,98,4,19030).
weather(wind_speed,98,4,163).
weather(ghi,98,4,0).
pred(wind,98,5,169242).
pred(solar,98,5,0).
pred(load,98,5,867674).
pred(price,98,5,19429).
weather(wind_speed,98,5,193).
weather(ghi,98,5,0).
pred(wind,98,6,170297).
pred(solar,98,6,0).
pred(load,98,6,886860).
pred(price,98,6,19781).
weather(wind_speed,98,6,193).
weather(ghi,98,6,6100).
pred(wind,98,7,168740).
pred(solar,98,7,570).
pred(load,98,7,899280).
pred(price,98,7,20030).
weather(wind_speed,98,7,134).
weather(ghi,98,7,18900).
pred(wind,98,8,175515).
pred(solar,98,8,5133).
pred(load,98,8,910305).
pred(price,98,8,19997).
weather(wind_speed,98,8,142).
weather(ghi,98,8,29700).
pred(wind,98,9,178714).
pred(solar,98,9,10254).
pred(load,98,9,913416).
pred(price,98,9,19695).
weather(wind_speed,98,9,149).
weather(ghi,98,9,36200).
pred(wind,98,10,173250).
pred(solar,98,10,13837).
pred(load,98,10,899915).
pred(price,98,10,19245).
weather(wind_speed,98,10,148).
weather(ghi,98,10,37400).
pred(wind,98,11,168739).
pred(solar,98,11,15180).
pred(load,98,11,891903).
pred(price,98,11,19036).
weather(wind_speed,98,11,113).
weather(ghi,98,11,32700).
pred(wind,98,12,162065).
pred(solar,98,12,15389).
pred(load,98,12,900435).
pred(price,98,12,19225).
weather(wind_speed,98,12,100).
weather(ghi,98,12,23400).
sample(99).
cap(wind,99,350000).
cap(solar,99,250000).
pred(wind,99,1,159980).
pred(solar,99,1,6300).
pred(load,99,1,726917).
pred(price,99,1,18445).
weather(wind_speed,99,1,125).
weather(ghi,99,1,0).
night(99,1).
pred(wind,99,2,161489).
pred(solar,99,2,2850).
pred(load,99,2,759949).
pred(price,99,2,18420).
weather(wind_speed,99,2,126).
weather(ghi,99,2,0).
pred(wind,99,3,160125).
pred(solar,99,3,0).
pred(load,99,3,801111).
pred(price,99,3,18536).
weather(wind_speed,99,3,163).
weather(ghi,99,3,0).
pred(wind,99,4,158015).
pred(solar,99,4,0).
pred(load,99,4,837273).
pred(price,99,4,18793).
weather(wind_speed,99,4,193).
weather(ghi,99,4,0).
pred(wind,99,5,155643).
pred(solar,99,5,0).
pred(load,99,5,852958).
pred(price,99,5,19056).
weather(wind_speed,99,5,193).
weather(ghi,99,5,6100).
pred(wind,99,6,162313).
pred(solar,99,6,0).
pred(load,99,6,862743).
pred(price,99,6,19289).
weather(wind_speed,99,6,134).
weather(ghi,99,6,18900).
pred(wind,99,7,164012).
pred(solar,99,7,0).
pred(load,99,7,870519).
pred(price,99,7,19395).
weather(wind_speed,99,7,142).
weather(ghi,99,7,29700).
pred(wind,99,8,172861).
pred(solar,99,8,5118).
pred(load,99,8,881479).
pred(price,99,8,19339).
weather(wind_speed,99,8,149).
weather(ghi,99,8,36200).
pred(wind,99,9,176391).
pred(solar,99,9,10950).
pred(load,99,9,887040).
pred(price,99,9,19134).
weather(wind_speed,99,9,148).
weather(ghi,99,9,37400).
pred(wind,99,10,168218).
pred(solar,99,10,15617).
pred(load,99,10,876497).
pred(price,99,10,18777).
weather(wind_speed,99,10,113).
weather(ghi,99,10,32700).
pred(wind,99,11,160242).
pred(solar,99,11,17347).
pred(load,99,11,877407).
pred(price,99,11,18584).
weather(wind_speed,99,11,100).
weather(ghi,99,11,23400).
pred(wind,99,12,152195).
pred(solar,99,12,18011).
pred(load,99,12,893033).
pred(price,99,12,18715).
weather(wind_speed,99,12,103).
weather(ghi,99,12,11600).
